LAMMPS data file via write_data, version 4 Jul 2026, timestep = 400000, units = metal

6300 atoms
3 atom types

0 40.79 xlo xhi
0 40.79 ylo yhi
0 40.79 zlo zhi

Masses

1 1.007999999740698
2 12.01099999691024
3 15.99899999588435

Atoms # atomic

719 3 4.829401586305288 7.683076519668221 3.867888566829697 0 0 1
720 1 5.740682540499127 7.97393147885245 4.025452572797169 1 0 1
3743 3 8.283758124175312 0.20859324808744273 3.986457787370832 0 0 1
3740 2 7.777621426072971 1.4775887307887805 4.247033415630799 0 0 1
5238 1 3.8069727597268557 5.270334840361451 1.7718370226344624 1 0 0
5237 3 3.5771251486112985 4.303156799589521 1.9894925023304557 1 0 0
4752 1 3.783044273053859 4.159593717215506 4.09616504898693 0 0 0
2261 2 6.684890305572521 6.094033070560783 6.02575910651646 1 0 0
4751 3 3.584966620516241 4.001211293768008 4.970110788443513 0 0 0
5778 1 4.179836865646677 7.243084946150649 2.4590193744049027 0 0 0
5777 3 3.8410323761745206 6.799860385902202 1.595935013744982 0 0 0
4748 2 2.4350678799838885 4.885717916016351 5.290397143560553 0 0 0
3563 3 9.010314368409242 4.959649516839429 8.571524202065575 0 1 0
4301 3 7.2707206778693525 8.537267059251976 3.8037796283740732 0 0 1
3564 1 8.404667119168531 4.539326928173601 7.944175469061287 0 1 0
2266 1 5.533294007697988 4.233708585208658 5.752989449842608 1 0 0
2264 2 6.227512018442524 4.753141692821747 6.472182873562576 1 0 0
2265 1 5.754648541851265 4.9037756932301395 7.482128815870947 1 0 0
2267 3 7.3157667210908475 3.8338000527448104 6.636303444926467 1 0 0
2260 1 7.574232561915934 6.375930211856658 6.676897135989824 1 0 0
2262 1 5.888701824479904 6.80079911348596 6.2896690124668915 1 0 0
2268 1 6.895841122827267 2.9880802660099195 6.8129781323185865 1 0 0
4745 2 2.571001580994825 5.442523841773254 6.750814921543185 0 0 0
4744 1 3.4348420027807256 6.121012508805549 6.631436971324765 0 0 0
221 2 5.4994578043438676 1.0941802899257953 8.876965782108508 1 1 0
224 3 5.929205489288625 1.4136361003319957 7.56567276570443 1 0 0
4302 1 7.89145687499883 8.704435195327946 4.594079316303103 0 0 1
4931 3 3.7832226802749194 1.5682625998037818 5.933455323285297 0 0 1
4928 2 2.3652959376763856 1.2976686422731365 5.946340584634215 0 0 1
3738 1 9.944361305831121 1.9179499462025498 4.336580938315535 0 0 1
4298 2 7.982882400922971 7.502382872552716 3.013303860210224 0 0 1
4295 2 9.473348029285617 7.563955910911059 3.193364310678246 0 0 1
4297 1 9.841084360753568 7.179198023880278 4.177650751713993 0 0 1
225 1 5.154940355173775 1.3971275824162117 6.939597677432356 1 1 0
5234 2 4.5500368392809865 3.3299012322222703 1.7260094446882546 1 0 0
4300 1 7.631431944208151 6.537392738417117 3.399853948829539 0 0 1
4932 1 3.8494361996486304 2.493525621069338 5.570886321755949 0 0 1
5235 1 5.422128725350003 3.656497187285579 2.3224817460822154 1 0 0
4299 1 7.676210505074196 7.5828934707279405 1.966008525436101 0 0 1
4294 1 9.886593992535994 8.600929572636014 3.096261721202057 0 0 1
5230 1 3.389707051219994 1.8777877334018294 2.926421799572451 0 0 0
716 2 3.8288410582251764 8.40221348404429 4.630977357469344 0 0 1
855 1 1.9227565116951826 4.035832863954945 1.1278236520097076 0 0 0
5231 2 3.95182667645803 1.9555512877885652 2.0249773908394704 1 0 0
3741 1 7.536045593138847 1.697571621792047 5.332979265215557 0 0 1
4929 1 2.0495651700822752 0.877392703270847 4.9165347164418876 0 0 1
4296 1 9.977125728576725 6.842827895194677 2.5040368400368367 0 0 1
718 1 2.8007957437085103 8.074762007999647 4.311272070517998 0 0 1
5233 1 3.341323083544682 1.642253593803948 1.199755723301959 1 0 0
3561 1 10.113339684934225 4.206183094128123 7.150039574627014 0 1 0
974 2 7.033180259214295 9.421956470756207 7.228781756529815 0 0 0
973 1 7.3345726284424835 8.680130512395161 7.926262369001841 0 0 0
219 1 3.8888300197398538 2.4808723551846534 8.972489754643416 1 0 0
223 1 4.794788505666537 0.27647188568453746 8.764813719679212 1 1 0
4750 1 2.439673798866015 5.707608145861311 4.559608396651854 0 0 0
5774 2 4.6115814536105635 7.44751741675912 0.5912207735434966 0 0 0
4749 1 1.542093084145626 4.243159880881061 5.211437967664898 0 0 0
2263 1 6.879162326822172 6.106590036013674 4.974194194015001 1 0 0
5776 1 5.623505558571465 7.027285173992799 0.634244586481317 0 0 0
5236 1 4.862840026910219 3.3525441305745005 0.6776681327368518 1 0 0
5232 1 4.738837428376663 1.20872897074118 2.0430208485818704 1 0 0
3737 2 9.043159881630922 2.469512667339635 3.981046806564442 0 0 1
3742 1 6.9400367582624085 1.7227444626877295 3.5181440376984283 0 0 1
5744 2 2.2576137012473185 9.327403697307869 8.452834623902705 1 0 0
975 1 6.501896122967063 8.908497317579872 6.471768859229852 0 0 0
5771 2 4.5724401533148855 8.927845296187382 0.8943902983082219 0 0 1
5772 1 3.5424938468975014 9.22984716143387 1.105695089744658 0 0 1
976 1 6.273222688322738 10.000652688432604 7.723434922270081 0 0 0
854 3 1.203402298387292 4.227132194014616 0.4903867025670663 0 0 0
4930 1 1.854149050921513 2.1463435503038584 6.25027652235655 0 0 1
4747 1 1.6914705498910168 5.952764656932679 7.011293824207817 0 0 0
5743 1 2.213079174313125 8.554954147381178 9.104532209873522 1 0 0
4746 1 2.861763884846159 4.70536020339318 7.560159470828774 0 0 0
980 3 9.018490326821537 9.174549064309748 5.996748707471045 0 0 0
5770 1 5.22599337043802 9.196841382376025 1.792226729155154 0 0 1
218 2 4.792136505237364 2.1817776874042005 9.566039466406489 1 0 0
977 2 8.217420793391112 10.152394877262696 6.643017606472157 0 0 0
5749 1 0.27386177045960447 9.557514405923495 8.055371864528155 1 0 0
5747 2 1.1435749428454438 9.413302575806878 7.444781716901208 1 0 0
4181 2 10.07241210620117 0.47230905131564194 7.423735504856169 0 0 0
4182 1 9.45009694317598 1.3521674128814476 7.158145912106975 0 0 0
5748 1 1.1440365205191065 8.51592054909593 6.8342556856226295 1 0 0
717 1 4.006245901668904 8.256767329471785 5.6660706634815785 0 0 1
981 1 9.797512885564133 9.553016723655423 5.618290320238184 0 0 0
1635 1 8.48492457466626 9.85661173082339 2.1190242178373686 0 0 1
1636 1 7.360652156530481 10.083786137633178 0.9063285655753591 0 0 1
220 1 5.416951087923876 3.061488237444639 9.463991541984988 1 0 0
3739 1 8.860677595571978 3.5657067285249013 4.393126830269862 0 0 1
3558 1 9.659682202829583 6.688682242438297 6.884224162428841 0 1 0
2319 1 0.006227340730804722 2.5025863005375353 3.8799329355716696 0 1 1
943 1 1.7644282458824916 8.271584708605593 1.6402536421064482 1 0 0
944 3 0.6689294032260782 7.860693496452058 3.417521690240395 1 0 0
945 1 0.4501166067772339 8.807864214168049 3.6229116752608874 1 0 0
941 2 0.9598818643153707 7.669913315473466 2.0370599179754874 1 0 0
942 1 1.328136152127951 6.584230626167713 2.031204535783862 1 0 0
5746 1 3.221413186197173 9.496561459340267 7.926594210034622 1 0 0
5745 1 2.0813339199825536 10.123018846870735 9.140816281633654 1 0 0
713 2 3.895342400009541 9.949249462214976 4.410187975165868 0 0 1
715 1 3.609404024588415 10.075611165362906 3.3324091881459497 0 0 1
222 1 6.508278327375507 0.8284837421442596 9.33706076313559 1 1 0
3736 1 9.045729274453352 2.5650635216337885 2.8818799579885903 0 0 1
4927 1 2.6108819232302727 0.7090212697832274 8.014926230530842 0 0 1
4925 2 2.234495950675902 0.27460118933433075 7.086387166698699 0 0 1
4926 1 1.2014978331967006 0.00938992110413289 7.318578044103062 0 0 1
4705 1 7.059813766186223 0.2726251093832249 1.012336060356865 0 1 0
4704 1 8.714657582558187 0.5728000886883945 0.7268643353307418 0 1 0
3690 1 7.941439510638294 6.243672593767769 9.673444337792882 0 1 0
3687 1 5.7960645910354 5.331894767970809 9.836752439196959 0 1 0
3686 2 5.985237214201222 6.426451204381513 9.821241243274171 0 1 0
3688 1 5.819030833702235 6.929146887834223 8.770950271835751 0 1 0
3684 1 3.987641316887423 7.128906074854726 10.162432469017224 0 1 0
5239 1 0.27750308910866345 6.33308539334122 9.324770665289408 1 0 0
885 1 10.03418352840362 8.803888418594822 9.289406038114087 0 0 0
3340 1 7.002428065531474 2.8261492402437645 0.05254071049623513 0 0 1
3560 2 10.231892190134584 4.95557489300468 7.9644447969177 0 1 0
3556 1 10.768752746259084 7.005777129443981 8.299229945527335 0 1 0
3557 2 10.574905882509507 6.317974719698538 7.455102300552183 0 1 0
3559 1 11.381875523629649 6.22890087234963 6.792455234257135 0 1 0
2746 1 12.975507826548403 5.939937133314231 4.345190147607573 0 0 0
2749 1 13.765220006707146 7.323229636763029 5.117829464328142 0 0 0
2748 1 12.034364214569292 7.402386128988456 4.825691132454214 0 0 0
148 1 12.516062995648564 3.4931863343861282 6.119473369646504 0 0 0
147 1 13.025947173131145 4.4451992216956135 7.536142387261275 0 0 0
146 2 13.44314970893684 3.776922011843824 6.722903667818066 0 0 0
145 1 14.286808463091527 4.211650544718682 6.116719860848953 0 0 0
3789 1 16.305284738171895 0.2987504092568602 2.671690029460889 0 0 1
3788 3 17.19527751768752 0.6321573900217259 2.888641435306443 0 0 1
2751 1 14.305195056824097 7.3285112553163945 2.631247733942553 0 0 0
2750 2 13.221044045579177 7.524691089005566 2.9239735626742576 0 0 0
2747 2 13.012661365751237 7.0235922104338515 4.402125054612589 0 0 0
151 1 15.119599127083298 2.966839544024429 7.6441811702938205 0 0 0
149 2 14.173330828317011 2.572551642723303 7.362394664818176 0 0 0
150 1 14.250793929057409 1.7124233825651216 6.616924327317292 0 0 0
152 3 13.463591020364072 2.0463783616611293 8.495349427338814 0 0 0
4185 1 11.432701550801017 1.4894556569667723 8.19865683889374 0 0 0
3438 1 17.713752479164118 2.127872858052246 2.4147395317485403 0 0 0
4429 1 11.33197378801074 10.16895845745767 7.618494078877122 0 0 0
3434 2 18.090307072076413 2.791076768974954 0.5220027290004119 0 0 0
5061 1 17.267918296317976 4.713881209674357 4.1716691633842915 0 0 1
5062 1 15.96665474891763 4.668850181630128 2.8672067797447522 0 0 1
5060 2 16.56200544332124 5.290488606046525 3.5339327649941654 0 0 1
3101 2 13.49366686598803 2.686188220594671 1.794068360460123 0 0 0
3102 1 13.431013660318488 3.6394406695415866 1.2184541192606928 0 0 0
931 1 16.031820424455578 6.955549876942559 6.187528462109516 0 0 0
936 1 17.419848707818915 8.953093411698337 8.07446475749899 0 0 0
929 2 16.353158596963755 6.818222425737151 7.226998744636356 0 0 0
5065 1 18.030822214973554 6.007744755289468 2.108189097603974 0 0 1
3098 2 12.648030671755498 2.7754708691313685 3.047045017861592 0 0 1
3100 1 12.676993751626465 3.815010850513477 3.4670834715152 0 0 1
4184 3 10.810938467656445 0.8258248833499426 8.54079672513624 0 0 0
5059 1 15.83005283138277 5.7966763130938 4.206013672529222 0 0 1
5063 2 17.276162190122136 6.427294827095744 2.71979924216496 0 0 1
5064 1 17.895499564658348 7.022661567863646 3.4181583728868743 0 0 1
5066 3 16.47546363727779 7.214604829273147 1.8036352093701165 0 0 1
3099 1 11.617768907985049 2.518089283121057 2.9522682766840984 0 0 1
5067 1 16.31877860862012 8.115695756545096 2.19496224642128 0 0 1
3437 3 18.075326522593038 2.9714321545892726 1.991997656251917 0 0 0
932 2 15.833879302136259 7.86567888777564 8.191259499811348 0 0 0
928 1 16.13631044885495 5.855573939103961 7.630828449629856 0 0 0
930 1 17.419863249528312 6.952563712385169 7.1313957677092885 0 0 0
4276 1 20.085453020282518 8.480753989893893 3.853680047845543 0 0 0
2151 1 14.11535156523131 0.7125815913822958 9.398696432142073 0 0 0
3783 1 20.018764405673053 0.18426363983338293 3.7503802328806946 0 0 1
2892 1 16.956710939780397 1.741426384515686 6.177367253223383 0 0 0
153 1 13.333912626773833 2.798158109080397 9.201108585264626 0 0 0
3784 1 19.531412266184635 0.17052006685370197 1.9939973542909297 0 0 1
387 1 19.52401992187284 3.636732183588871 2.7395657068896204 0 0 0
2896 1 18.931346044729327 1.4011719866393295 4.575776656697023 0 0 0
2890 1 17.858442029151725 0.42575436523046484 6.894326783059394 0 0 0
2893 1 18.13111377373172 2.028383714644426 7.428168255153091 0 0 0
2895 1 19.95347619306402 1.0392021546004548 5.958096950479293 0 0 0
2891 2 17.967277096976673 1.4522004788684784 6.522035379189459 0 0 0
2894 2 19.15133797343417 1.6392473778678132 5.633937611261836 0 0 0
2752 1 12.53814202686489 7.019145630829122 2.3004759635423633 0 0 0
4434 1 13.466049796020975 9.287968268992131 7.867563614462401 0 0 0
3968 3 15.888389810629716 9.537914232885372 2.855464301903704 0 0 1
3435 1 17.074016395113265 2.9274007811247076 0.08830518677057825 0 0 0
2166 1 19.05782439085063 8.535040152420832 1.6581768684684148 0 0 1
2898 1 19.878752772420004 3.2276835670603936 4.704047716689646 0 0 0
2897 3 19.510567260250866 3.0213294411752214 5.611799796137217 0 0 0
386 3 20.383415511656175 3.7725278434963823 3.1881054934165247 0 0 0
2753 3 13.127550499262316 8.972986888356418 2.995768850358494 0 0 0
3969 1 14.889806184308826 9.428060031281234 3.044539309926147 0 0 1
935 3 16.421183384590453 9.091385204064023 8.118143690761856 0 0 0
933 1 14.755145953779726 7.962348711695843 8.118501825316548 0 0 0
4848 1 14.939836047140846 5.2101105395577445 9.844235948427084 0 0 0
4356 1 14.067757993286941 0.32733703953767845 1.5389352112523527 0 0 1
3103 1 14.610163071115451 2.625577326940363 2.0401401675718653 0 0 0
3097 1 13.082596027544351 2.139547215581166 3.7617494460996506 0 0 1
2165 2 19.140769328772123 9.187698823577172 0.7525174977534086 0 0 1
5894 3 19.258860654767055 8.92924592175724 8.039412178194679 0 0 0
5895 1 19.67968066224993 8.317441972263014 7.411346165260771 0 0 0
2167 1 18.267424818494117 9.89608234842471 0.787840351069566 0 0 1
934 1 15.871784602038796 7.435363891010398 9.221089269123333 0 0 0
3104 3 13.23942797757389 1.5692801779399088 0.9761274243043979 0 0 0
3105 1 12.931920883047328 1.840124409764819 0.12405310588161225 0 0 0
385 1 20.287193116132993 5.304399342221028 1.752109625617166 0 0 0
2871 1 20.1907891286 4.0446053162467495 6.57289941128334 0 0 1
2869 1 20.05519850387559 4.510871330410201 8.813636162927379 0 0 1
5891 2 20.26745869458295 9.265823770504685 9.01206234074188 0 0 0
1809 1 11.033193174582728 10.034023507086685 0.7566262104802022 0 0 1
1808 3 11.982726941642492 9.916296913868532 0.8235309679911372 0 0 1
2754 1 12.706948366349144 9.344503663006643 2.1165127336408416 0 0 0
3537 1 11.9461951384117 9.849597529746417 4.211370021264875 0 0 0
4179 1 11.679578581606465 0.903857165731526 6.057046406831573 0 0 0
4178 2 10.93736589139578 0.04253362273567846 6.1923666127785 0 0 0
610 1 18.58190277011619 0.8518799897672391 9.24464831063312 0 0 0
3562 1 10.97195553323432 4.636426412374237 8.638550875247256 0 1 0
5893 1 20.302597518524475 8.507636109611756 9.795322203418374 0 0 0
4850 3 13.022392618569988 4.393490281359742 10.118036005899276 0 0 0
3433 1 20.01001061373404 3.6910180586615797 0.5638165823311053 0 0 0
3436 1 18.49037939597338 1.786653411044043 0.3592622603763722 0 0 0
1804 1 11.78444652879394 7.327371349873779 0.22351555838809375 0 0 1
4281 1 21.98264440999595 7.07175007131979 4.757432947088594 0 0 0
2162 2 20.497478275903244 9.834093830264024 0.6748285214958706 0 0 1
4278 1 21.630982424066442 9.309112216909712 3.958182383283599 0 0 0
4277 2 20.861031340403724 8.86456271278968 4.532662964484071 0 0 0
4280 2 21.596558143153832 7.844046514857743 5.348946934319608 0 0 0
4282 1 22.560721927897582 8.339641669562253 5.733879391583959 0 0 0
2870 3 20.854904935606413 4.710555891455292 6.923341785294027 0 0 1
379 1 22.547635977043676 6.276941374726508 2.8243241689343064 0 0 0
381 1 22.63580868930382 4.893606945382832 1.6610596374871387 0 0 0
384 1 20.480801753855197 5.810763904171169 3.4835810170518964 0 0 0
383 2 20.79269100659275 5.080923229918951 2.801509610507081 0 0 0
380 2 22.307002328509846 5.234192579356782 2.674869272854164 0 0 0
382 1 22.825204005425434 4.588556908176643 3.4117475998370668 0 0 0
4284 1 20.81731707945713 6.363671558881613 6.452455843352086 0 0 0
5717 2 22.556558166418085 1.5399862376534583 4.349408491051896 0 0 0
5720 2 23.871615996322443 0.8706578840455205 4.004393065920527 0 0 0
5722 1 24.452234976659696 1.4652396441688886 3.29225110751236 0 0 0
5723 3 24.73611866515005 0.6591007100854442 5.106987696859252 0 0 0
5724 1 24.870254729118564 1.4744216157156655 5.600570973572448 0 0 0
1790 3 27.470419428878444 5.804769182445697 2.6678809854477086 0 0 1
1787 2 26.19772755803298 5.761093675476415 1.981296094457763 0 0 1
1788 1 25.44961166629082 5.391642891084081 2.6905064960015856 0 0 1
2864 2 22.018228893372278 5.4354774234377095 8.90287724052781 0 0 0
1789 1 26.294902352192103 5.005815919995649 1.2066491411842353 0 0 1
2867 2 21.05766095782362 4.441666249605062 8.287653570789445 0 0 1
4283 3 20.69622308656034 7.314026610521677 6.282375605649097 0 0 0
2868 1 21.547052959927292 3.4030447401191553 8.372458178792565 0 0 1
1791 1 27.477778087257008 6.339433880863482 3.476221873525456 0 0 0
3941 3 25.349203374416483 2.945192599332822 6.118466397137269 0 0 0
3938 2 24.817179085385554 4.224113894906884 6.392442856657221 0 0 0
3942 1 26.286290494258786 2.9751162761384657 6.317810662938746 0 0 0
2863 1 21.768679670187975 6.425779002186798 8.529199701329322 0 0 0
5719 1 22.800870733710155 2.586359315116065 4.713802047190227 0 0 0
5718 1 21.850525820510505 1.572087331778431 3.5417509378328207 0 0 0
3939 1 24.537219024655872 4.353076574099548 7.459155205077885 0 0 0
3940 1 23.87914156624354 4.225020908491188 5.764097655187791 0 0 0
2865 1 23.09628454663738 5.314581407006868 8.730639770788288 0 0 0
2866 1 21.85614412668479 5.480799821576962 9.928422750639788 0 0 0
1786 1 26.812676952976762 7.412939298857017 0.7533942169087602 0 0 1
3935 2 25.746253133634045 5.367451909091847 6.076891055891316 0 0 0
5903 3 27.841301190462346 2.4259658859401974 7.027869420288618 0 0 0
1784 2 25.983756817956195 7.056509125633677 1.3160176577739857 0 0 1
1785 1 25.128720233583195 7.005013444234909 0.6018960889112653 0 0 1
1890 1 29.37138583733664 5.401702352807099 2.9566871078949455 0 0 0
5904 1 27.58630756514015 1.564628798552889 7.499342459739019 0 0 0
3936 1 25.248545025630627 6.387009554010337 6.191883894760229 0 0 0
3934 1 26.692639936882767 5.423392419301624 6.63965887666104 0 0 0
1783 1 25.827880799052526 7.869970903351572 2.065448952613934 0 0 1
4170 1 28.82193282120414 3.5101357011627847 1.4140261439688029 0 0 0
3937 1 26.06079200764926 5.231989241453352 5.01033116816724 0 0 0
4169 2 29.84873876918029 3.2617133578427167 1.5437088942103778 0 0 0
1888 1 30.072944702784564 7.072104836374261 4.693957404011587 -1 0 0
1889 3 30.22556637616561 5.442352615854284 3.41428273875703 0 0 0
1887 1 29.39469241508398 5.532325039883199 5.343712062366179 -1 0 0
1041 1 29.571375694119634 10.100559877080283 3.834724359387423 0 0 1
1336 1 27.140131916308995 8.420068794007879 9.98920512901109 0 1 0
5421 1 25.014637030784094 9.30540590121267 5.579281086917092 0 1 0
1040 2 30.178094277876685 9.584500896802917 3.0893322179300604 0 0 1
1042 1 29.68149775215014 8.647465044863514 2.7680989603002177 0 0 1
5897 2 30.26571176126087 2.140413022378609 7.2535048700839315 0 0 0
5425 1 27.098134791556145 10.189992809842172 4.650138355895709 0 0 0
5426 3 27.506410212435803 8.18315206981565 4.646955919861221 0 0 0
5898 1 30.38971337983899 1.7308396303665192 6.25472974203991 0 0 0
4172 2 30.085635066978178 2.2563273746565415 2.6297382947435666 0 0 0
4174 1 29.60767543706481 2.678273932156333 3.5354284524341826 0 0 0
1334 2 26.542600640508443 8.592468413873114 9.08042867672929 0 1 0
1337 2 27.351611980627187 9.212565125794471 7.887332740477961 0 1 0
5427 1 27.524411818807188 8.20770469472567 5.633649311539208 0 0 0
1340 3 28.011736815983042 8.121060593597829 7.202329510076681 0 1 0
1341 1 28.925117805371325 8.361281592785472 6.899942837352945 0 1 0
5423 2 26.727251307343227 9.27907853829704 4.208222991454349 0 0 0
5900 2 28.99154151154159 3.0307861273219356 7.549492478932591 0 0 0
629 3 26.95107779537918 0.6879503515620901 8.708019286423681 0 0 0
5901 1 28.957763260315925 3.109836415473044 8.654026419441356 0 0 0
622 1 25.822635922778222 2.8683290510244075 8.788475319938952 0 0 0
5902 1 29.103995800179256 4.076276431937599 7.166664496969795 0 0 0
1333 1 26.166038674396297 7.674916170057887 8.70589983714403 0 0 0
1335 1 25.724128086175217 9.27119754667717 9.41178524737675 0 1 0
5424 1 26.707486946680206 9.201420223817708 3.1201253484774556 0 0 0
1886 2 30.209312997193567 5.975455607082008 4.768752301225934 -1 0 0
5892 1 21.221209076605135 9.316959336597707 8.510605096001195 0 0 0
5420 2 25.218999925318357 9.155247475185119 4.562247923005066 0 1 0
4175 3 29.446632788730586 1.0537793472651507 2.2957383314276507 0 0 0
5899 1 30.205616848741318 1.2194149988802232 7.84308018016666 0 0 0
4279 1 20.439121827120015 9.659078571704852 5.171703272039437 0 0 0
1339 1 28.048151653709922 10.01794552150813 8.156389135038689 0 0 0
5716 1 22.022240232241675 0.9664292115236118 5.091219843307356 0 0 0
2163 1 21.202466356738007 9.05721512135717 0.9526890305045123 0 0 1
4176 1 28.518449041722565 1.2121745418407353 2.130243488785391 0 0 0
1007 3 26.9497223026012 1.5320985559233258 1.2506103749919224 0 0 0
1006 1 25.23023491118073 0.6675296981460206 0.40050220926399527 0 0 0
1004 2 26.210823789258356 0.3937789609300258 0.8735010200958997 0 0 0
4168 1 30.427792826995233 4.143032650715255 1.720760737390761 0 0 0
1338 1 26.609988782575098 9.68004714116841 7.253320635750869 0 0 0
5422 1 24.871832833547195 8.127593732755617 4.4796629930965155 0 1 0
5419 1 24.63829097727996 9.719032452994961 3.8729163909125046 0 1 0
109 1 30.356817320166588 8.389718140153924 9.107830423745085 0 1 0
2647 1 29.149647468955003 0.44218949940531066 5.06379210638549 0 1 1
626 2 25.517198142464245 0.8253062906055391 8.767757141092565 0 0 0
623 2 25.15619284840561 2.164993087024464 9.33045347618613 0 0 0
625 1 24.094956718016125 2.3150451839518795 9.068383521971162 0 0 0
627 1 25.027005958949292 0.09381315689111074 9.369727942218997 0 0 0
628 1 25.13677079805736 0.7657360662445987 7.7584903261251785 0 0 0
4171 1 30.18416535304613 2.972572918256747 0.5585075088566746 0 0 0
1008 1 27.163743901568793 1.9963868632771757 0.3869837511382135 0 0 0
5607 1 30.334309067849762 0.5085783115285737 0.804271123228978 0 0 0
1043 3 31.454475496627023 9.408611059147496 3.746679956564553 0 0 1
1044 1 31.898281752366717 8.582577029574436 3.4587728125190003 0 0 1
5896 1 31.107484326703815 2.7782698811117212 7.485338990089568 0 0 0
4876 1 32.751798428177274 4.874479886172789 2.5427947732176315 0 0 1
4764 1 33.980589858288816 2.269625990798596 4.170884879276623 0 1 0
4875 1 32.753155211211805 5.054385318755194 0.874194107659602 0 0 1
4878 1 31.183397408999852 6.304214055630713 2.4404361482031107 0 0 1
937 1 39.663130364785495 7.438737363927958 1.7511874432389551 0 0 0
4768 1 32.61714976162304 0.6352145478791718 5.4928729572134305 0 1 0
3357 1 39.52001098427565 1.9121256823087411 9.084385132964327 -1 0 0
6144 1 36.904424772536494 7.005691355708353 3.6526617333320712 0 0 0
6141 1 37.169061258373404 4.554186706203548 4.043649704778374 0 0 0
1885 1 31.176433876642 4.621082969202862 6.027239171010173 -1 0 0
1883 2 31.423399366219915 5.522724003732586 5.51606749124747 -1 0 0
1882 1 31.826911683200223 6.156723943357337 6.325207955927466 -1 0 0
711 1 38.41857634262123 7.672114072807234 6.610380637498805 0 0 0
710 3 38.24939439163747 8.020127104225585 7.551816551862101 0 0 0
6146 3 38.638487335607245 7.542819480630599 4.740836472747647 0 0 0
6140 2 38.042357745425036 5.210259292273233 4.22137850667065 0 0 0
6139 1 38.647083221669824 5.152853248555271 3.3515739744283417 0 0 0
6142 1 38.625596264480855 4.8256591039175065 5.1642158575918 0 0 0
6143 2 37.52105700428038 6.620683694912691 4.474833336143615 0 0 0
6145 1 36.915450052066056 6.669890821975005 5.371053112424947 0 0 0
6147 1 39.50688188028566 7.201115267501426 4.532740920230184 0 0 0
4762 1 34.76495195493044 2.2980349307611916 5.769118204933974 0 1 0
2315 2 39.61379485927422 1.4322103472216563 5.3666811934667695 -1 1 1
1884 1 32.287413549583185 5.37818912150494 4.836656319396944 -1 0 0
4334 2 35.13175955411713 4.794569463115883 8.42153877766456 0 0 0
4763 2 34.53216106330682 1.6549389392390113 4.9530159855929075 0 1 0
4765 1 35.433704531249234 1.3227094243268196 4.5532574388208324 0 1 0
4545 1 37.17719666101981 2.7903161145168616 8.539898041765873 -1 0 0
4544 3 37.76932248863901 1.9855117165283656 8.92553017889225 -1 0 0
4335 1 34.93989233358297 5.862544592646493 8.060020024067219 0 0 0
3897 1 38.06193971980205 0.5661368475961112 2.8359335708504956 0 1 0
2321 3 38.994622542962915 2.05472284599769 3.1035488626363312 -1 1 1
2320 1 40.6035941093538 0.7677032801012641 3.514131853230258 0 1 1
2318 2 40.10915524035978 1.650875453092413 3.945265982657268 -1 1 1
2322 1 39.416957907163784 2.6032583318586244 2.3931911413066937 0 1 0
2314 1 40.45722292938455 1.103058094270488 6.0014601678418344 -1 1 1
4766 2 33.68338146439631 0.43637194155413567 5.204901098833182 0 1 0
2317 1 39.30311753456018 2.419411563003466 5.747091833989164 -1 1 1
2316 1 38.852473577226405 0.6252712334177911 5.306236691251917 0 1 1
4872 1 35.05735745873542 5.191375368818989 1.610652030042547 0 0 1
707 2 38.038247462488926 9.444294784008063 7.498982975651293 0 0 0
938 2 40.49613219348949 7.925443954902886 1.2239144833367324 0 0 0
4332 1 33.12577184655949 4.3656298171265275 7.988590089165852 0 0 0
4874 2 32.943486914550654 5.620089799134903 1.7551567293356574 0 0 1
3356 3 40.35604855742007 1.5345664500681255 9.32439960055671 -1 0 0
4331 2 34.1349380913896 3.9214770352418764 7.693474707721204 0 0 0
4337 3 36.47188364542864 4.4138689339033315 8.041738350878093 -1 0 0
4877 3 32.0196249023207 6.683499188356347 1.9700214213862317 0 0 1
3925 1 36.6536816378538 3.784590755588306 0.3690103482089652 0 0 0
3928 1 37.19991357636796 5.038615799069838 1.2987821582886114 0 0 0
5247 1 38.22328390518962 6.758023209333871 8.680966686400176 0 0 0
4338 1 37.171753381172515 4.695066193700713 8.650827043741396 -1 0 0
4336 1 35.04884361252604 4.676871481523088 9.514942786016343 0 0 0
5246 3 38.346557543338506 5.9038190946832225 9.188953062603776 0 0 0
940 1 40.13763626951803 9.013527804408643 1.26375473734261 0 0 0
4871 2 34.36572480551326 6.077891397164785 1.79542061439925 0 0 1
3932 3 39.53682867304513 3.8500648723216164 1.1711049102943973 0 1 0
939 1 40.65767475331901 7.542721455991 0.18439965909834416 0 0 0
3926 2 37.30835616699272 4.677630202226441 0.27374893522537647 0 0 0
3890 2 36.06460111384504 1.2659501987107855 1.3156468474070038 0 1 0
4873 1 34.60645341854316 6.603657663103462 2.7541513154242603 0 0 1
3933 1 40.45042605889987 4.08940191676013 0.9038429555167042 0 1 0
3889 1 36.70906175259965 2.0887274342841513 1.698713374682262 0 1 0
3929 2 38.72738955450567 4.3126491055919 0.04777279836038921 0 0 0
6088 1 34.15321459193852 9.004136730391751 1.9285867593175516 0 0 1
4173 1 31.20689588978237 1.9538564694838878 2.687553341505956 0 0 0
4870 1 34.51802159734498 6.775119745394221 1.033190807193572 0 0 1
709 1 37.9641169183706 9.839408014062903 8.533822376442942 0 0 0
6085 1 33.51832262165027 9.861722507689393 0.38035180098584215 0 0 1
704 2 36.822707509656084 9.97939467592253 6.717327907082412 0 0 0
6086 2 34.00287132340573 9.986879292445888 1.3749916162918476 0 0 1
706 1 35.92746803667563 9.672493797617081 7.256447550437297 0 0 0
703 1 36.775386687183506 9.650786128794824 5.692907663411289 0 0 0
3891 1 35.30095689264768 1.3130087183949224 2.081045337704769 0 1 0
4330 1 34.182850340707176 3.956247148728461 6.607330089183985 0 0 0
4542 1 35.95281629672511 1.950944663698923 9.908179519127405 -1 0 0
5691 1 35.80221305034387 8.170809891433272 9.039552005636988 0 0 0
5694 1 34.830500962207005 10.178929392585689 9.949245568395266 0 0 0
3892 1 35.74057713759696 1.517762656780249 0.30730842435051303 0 1 0
4968 1 31.267753359299803 6.555539353550476 0.08113994650472402 0 0 1
5601 1 33.37779565689696 0.7223426362799925 1.2142562873963039 0 0 0
116 3 30.61627119456592 8.719068315015413 6.464849783667685 0 0 0
117 1 30.76073891858697 9.153912251075965 5.622849897779924 0 0 0
1036 1 31.147667579636376 9.824965924013714 1.2561519871834979 0 0 1
708 1 38.959590919795026 9.951245859288635 7.170667585201246 0 0 0
112 1 32.05059429449957 8.109791123961083 8.790872176108387 0 1 0
115 1 32.10651551206471 9.812411585156505 7.073003888630393 0 0 0
113 2 31.112463344496824 9.587331595368665 7.436963306861238 0 0 0
6091 1 35.864591614893726 9.704789464736395 0.5717585868099805 0 0 1
111 1 31.53369396647406 9.552011014158964 9.647284442632893 0 0 0
110 2 31.322428202779356 8.885723491307605 8.804510927221845 0 1 0
4333 1 34.231489819318554 2.8273464372102457 7.922731701034023 0 0 0
4541 2 36.94404411470375 1.6094115259182922 10.027212942765459 -1 0 0
5690 2 35.741368597353656 8.264414584694853 10.083006260645117 0 0 0
3895 1 37.63973910662193 0.04123073991845944 0.5469200140378437 0 1 0
3887 3 0.02122114765252622 10.529420628498093 4.1617627355336255 1 0 0
979 1 8.82704474087489 10.775904903550467 7.333891480036424 0 0 0
978 1 7.973990883529509 10.903741003226854 5.835433008606457 0 0 0
3886 1 1.181532471391296 12.20980308385392 3.9714850375518163 1 0 0
712 1 4.922524691642123 10.370337777035594 4.465201971281497 0 0 1
714 1 3.1369308970859695 10.54647095539639 5.076536080463071 0 0 1
1633 1 7.260254015725736 12.621123298612307 1.3541617622427486 0 0 1
1668 1 4.029265573798906 10.393896030981121 9.78558431281881 0 0 0
1632 1 6.576642021308134 11.501016075178892 2.5433851286872526 0 0 1
1631 2 7.527729242944082 11.820419408612137 2.013509867041888 0 0 1
3880 1 0.44450968195962776 12.80863036515223 1.863425128584904 1 0 0
1224 1 6.788758057543132 14.87701563867747 8.288862249578877 0 0 0
3280 1 8.267088703633133 14.021695850171055 6.071947771145092 0 0 0
3278 2 7.504569227236572 14.383643592145388 5.406238817883958 0 0 0
3277 1 7.586857381970078 15.429650981054786 5.364774099522657 0 0 0
3279 1 7.707085293689225 14.07870538180782 4.363240433061541 0 0 0
3283 1 5.949424505625248 12.93198327336568 5.691237003518902 0 0 0
3281 2 6.088712990360629 13.96880799076334 5.859836993390533 0 0 0
3282 1 5.285343806333781 14.551693232585757 5.39131611934972 0 0 0
3284 3 5.915847161938138 14.136461303861589 7.261196791901753 0 0 0
3285 1 5.272960860622409 13.502129493166724 7.5489059278534985 0 0 0
5966 3 2.0710454968668026 14.025440937276105 7.057967717095322 0 0 0
1673 3 4.104475021489115 12.6098061561211 8.239166250125605 0 0 0
1674 1 3.2536360975340455 12.990133526089917 7.982306274569963 0 0 0
1670 2 4.246744359028502 12.561143621207833 9.67595152964913 0 0 0
5963 2 2.5803543599994234 15.372380300696138 7.155103645621738 0 0 0
5965 1 3.6142633636901382 15.19999897829917 6.776827521209389 0 0 0
5962 1 3.2660372982699197 15.194847237312617 9.223084692501807 0 0 0
3705 1 9.30584392509564 18.368421050729786 5.20311505037197 0 0 0
5908 1 2.158141655069449 15.284662485170365 1.4854061288109277 1 0 1
5906 2 2.6376137091782246 15.624314310496413 0.5713187725875389 1 0 1
5960 2 2.6214979624423655 15.832123473672354 8.614691244792573 0 0 0
5961 1 2.880583356797479 16.879333196506046 8.721878531092688 0 0 0
3703 1 6.938840989378288 19.1093143958492 5.18473026773763 0 0 0
3706 1 9.155060054397275 19.997877497366375 4.602943889623403 0 0 0
3701 2 7.625441368550663 19.41141392988763 6.021773953447251 0 0 0
3704 2 9.020798741628308 19.386895587242527 5.509847058195885 0 0 0
1634 2 8.125579720592995 10.608926003079226 1.394703064758847 0 0 1
5959 1 1.6574456111730222 15.558019332181281 9.058302933775053 1 0 0
3702 1 7.509422431429711 18.636237490129652 6.766207947795281 0 0 0
3707 3 10.103217709736095 19.81260162366674 6.381469726395106 0 0 0
1637 3 9.239983220150012 10.884183892339612 0.5329929576494437 0 0 1
5910 1 3.089391038409621 17.729735584878142 1.0624069775957332 1 0 1
5905 1 3.2027606420255545 14.746738693197598 0.17716743313748978 1 0 1
5911 1 4.379546821787598 16.596070702239437 1.4197304819499037 1 0 1
5909 2 3.6197966790829614 16.82307116793066 0.6867768952205546 1 0 1
1638 1 9.567325460237123 11.755077816535419 0.6931443971217189 0 0 1
3853 1 1.7350887892932993 19.606685709088485 6.51442007544484 0 0 1
3700 1 7.295251335414539 20.346556168686753 6.515224777178581 0 0 0
3857 2 2.99954680133287 18.938668019063233 4.890804605234953 0 0 0
1223 3 7.399485781503163 15.343962346234903 8.929169851030725 0 0 0
1630 1 8.13224338606931 12.26646763079584 2.846395681614243 0 0 1
3859 1 2.643560852783203 17.93008597459997 4.933270999683474 1 0 0
670 1 7.86449463727682 16.15219804240867 3.330704177190116 0 0 0
1222 1 8.65863664273378 14.122253726914735 8.045614129491822 0 0 0
3884 2 0.7469688164456657 11.390207283401104 3.3308836105801336 1 0 0
669 1 7.012118186112276 15.39064441739262 1.9540483692243933 0 0 0
668 2 7.843596761015513 16.06547671353255 2.2791628010122262 0 0 0
5967 1 1.1431075283799579 13.864366314404975 7.388065637248071 0 0 0
5964 1 2.067463862435392 16.097196711559295 6.589012279974653 0 0 0
667 1 8.780463710097031 15.523291778727373 2.0130154923712413 0 0 0
3858 1 3.837015674992095 18.90269671722862 5.598042256748148 0 0 0
5634 1 1.0274292374448102 19.221369654724224 1.257860728089214 0 0 1
5050 1 0.722426780405395 16.2485933515902 3.1781339946769864 1 0 1
3854 2 1.9804296080075876 19.938232269017877 5.503847854585146 0 0 1
3855 1 0.9836923493427611 20.103644516225454 5.001529121555069 1 0 1
1220 2 8.499468223353006 14.415420290101506 9.034885359445731 0 0 0
2269 1 0.5037953512173434 11.928895394779234 10.185825096863487 1 0 0
3888 1 0.4794496846047508 10.5182070217159 5.034405552667723 1 0 0
3885 1 1.5642512591649795 10.846279996469084 2.8132397370972178 1 0 0
5750 3 1.321477553306726 10.572205612587608 6.593224328583976 1 0 0
5052 1 0.3192178181041775 14.589288821506708 3.6326708808529324 1 0 1
5751 1 1.0862001569648037 11.395388975263257 7.065522505345512 1 0 0
474 1 6.591883913125792 19.659262906201835 8.678306700078432 0 0 0
473 2 5.599528417718031 19.86091262560133 9.080744412113715 0 0 0
469 1 4.349812176436127 19.80756324519974 7.434906096481488 0 0 0
1672 1 4.985251629751106 13.321984192475487 10.048462044891833 0 0 0
1219 1 9.10643282218964 12.526956313169034 9.803992051329738 0 0 0
1217 2 8.16758994243032 13.211330061711001 9.823194930006833 0 0 0
1216 1 7.279238154703227 12.68327163261497 9.56041082497377 0 0 0
2272 1 0.5065638115857382 13.604980678559073 9.832496720081851 1 0 0
671 2 7.755186127416706 17.48542661199822 1.8313246831541095 0 0 0
5633 3 1.7105996434283695 19.793526463985636 1.5940645429815672 0 0 1
3860 3 3.520419378812914 19.30361160655448 3.6287718389540786 0 0 0
674 3 6.744153138431783 18.199090400584073 2.507429645368763 0 0 0
3861 1 2.7484028316668887 19.46420010990454 2.9447942888638545 0 0 0
675 1 6.680326519176781 19.071758720754268 2.0506366546624144 0 0 0
673 1 7.5156703570480365 17.53234343776672 0.7709171489625929 0 0 0
672 1 8.729448493117637 18.07747962434431 1.887624284962257 0 0 0
1666 1 5.64955894868416 10.996121659221254 9.32458221454 0 0 0
476 3 4.98783155198695 18.65330357542599 9.508120162792602 0 0 0
5630 2 2.409628197345408 20.372476740488906 0.4195601908331598 0 0 1
1667 2 4.747103256692899 11.1749226253604 9.955637793294157 0 0 0
1671 1 3.3208389334141692 12.674912132182692 10.129804132976078 0 0 0
477 1 5.500283676355285 18.072417438712133 10.041202359018458 0 0 0
2079 1 6.455748791606682 16.057396272852472 10.175033903028337 0 0 0
1221 1 9.471209809219726 14.783435653409883 9.403504348727417 0 0 0
3385 1 1.2497884019206154 10.821652746241556 0.24755949534922167 1 0 1
4437 1 15.312230415681638 10.658722093769654 8.03206691110073 0 0 0
4432 1 12.162820942878362 10.84081872444477 8.945413756864324 0 0 0
4573 1 10.595935677609768 16.462982188766382 7.130791158538004 0 0 0
4430 2 12.091215988138595 10.844235215027918 7.906681887278399 0 0 0
4433 2 13.431753267492239 10.29358888630504 7.428284165949959 0 0 0
2047 1 12.130658281170017 14.50595414526334 1.6807516803714821 0 0 1
2045 2 12.22984583206573 13.836524494531735 0.8629851984795109 0 0 1
2046 1 12.068891445993525 12.759331564369699 1.1814908161243618 0 0 1
2044 1 13.264930960038331 13.83749894369193 0.650886952284356 0 0 1
4436 3 14.489872076544545 11.151488535951536 7.972244815613539 0 0 0
4435 1 13.523210682526965 10.284568081655639 6.346538256773101 0 0 0
4575 1 11.953915947566387 15.778462573398004 8.13379851722955 0 0 0
3534 1 10.352415893586775 12.100065289921037 4.351544032754187 0 0 0
3532 1 12.440871919433915 12.976171710149691 5.567705896828337 0 0 0
4576 1 11.63597043800723 15.227208595320715 6.515820897566222 0 0 0
4581 1 11.602841584331511 18.996859242999413 6.77208737185255 0 0 0
4574 2 11.595759089118667 16.115673895343154 7.152636825585667 0 0 0
3536 3 11.36131906254401 10.379735587780273 4.791064909119976 0 0 0
4578 1 13.600818024174266 16.797748616945082 6.598441006680423 0 0 0
4577 2 12.544546991826376 17.153468797055982 6.462989047461877 0 0 0
4579 1 12.383603244341963 17.201546089996192 5.367119674951673 0 0 0
3531 1 13.39093710842238 11.913686333519347 4.5206764294594715 0 0 0
4580 3 12.487969504142843 18.501755636764038 6.95939511546874 0 0 0
3530 2 12.490145119218012 12.528390959316791 4.535658505744732 0 0 0
3529 1 12.442235048374528 13.351649505313683 3.8801037753607384 0 0 0
3533 2 11.344276688179168 11.673521118926915 4.18107742934325 0 0 0
3535 1 11.334226544231004 11.485431747077685 3.088873289397363 0 0 0
745 1 15.4763645615411 18.305657322062093 8.200376574568994 0 0 1
5925 1 19.01531914745937 11.532444161519305 7.312998247952888 0 0 0
5924 2 18.64189735594142 11.597459023258585 6.325502420489576 0 0 0
5927 2 18.061768928662076 12.979108159172023 5.9867408000541 0 0 0
5929 1 17.234815012795092 13.109365836672179 6.674178199363025 0 0 0
5926 1 19.576753631685374 11.199590525354203 5.737815290006801 0 0 0
5923 1 17.9251480491737 10.90381746690195 5.996002040238152 0 0 0
5930 3 18.967535494793044 14.087952640772661 5.97378716202694 0 0 0
5928 1 17.54660920792372 12.97975299830516 4.9470552015573785 0 0 0
5931 1 19.44743506415714 14.138723560168582 6.814709629724116 0 0 0
2421 1 17.93748509886821 15.355450375806504 6.876557179714894 0 0 0
2417 2 17.37789762178929 16.814352808275494 5.709547387207192 0 0 0
2602 1 14.5910013837217 15.127822219572044 2.5778018913180674 0 0 1
2420 3 17.54128300684044 16.230301909422334 6.988881024545706 0 0 0
743 2 15.388467938213159 17.52782550473225 8.94904860569137 0 0 1
747 1 17.20419068058949 16.827687268729765 8.841158576191349 0 0 1
2603 2 14.380280036320908 16.18009079421612 2.9009631628134187 0 0 1
2605 1 14.62292461025781 16.279836480195502 3.97845299533531 0 0 1
6290 3 20.029171988668097 17.433723942352458 7.649734083302382 0 0 0
6291 1 19.254986741076465 17.1742261056581 7.048728298716387 0 0 0
2606 2 15.17305422728562 17.125633532723338 2.0089707326492547 0 0 1
2608 1 16.248330862589178 16.820824013697262 2.0934549319798865 0 0 1
2607 1 15.047684357301428 18.15672305712314 2.2672254322956458 0 0 1
2419 1 18.27368979439698 16.599374300921706 5.158343289303024 0 0 0
2418 1 16.578180742424493 16.2118257272501 5.2309385483312045 0 0 0
746 3 16.59278685906127 17.130216138626434 9.536973212158424 0 0 1
744 1 14.866892402673647 16.766775576724676 8.384045898702187 0 0 1
2414 2 16.880105996197774 18.225361663889196 5.817694781821572 0 0 0
3963 1 14.448242952505813 11.86792414812213 2.7321629341066362 0 0 1
3962 2 15.510542344776754 11.927852737838053 2.881248873503115 0 0 1
3965 2 16.241408449263798 10.788504993909436 2.2608458439071515 0 0 1
3966 1 16.115226759321573 10.797895861071815 1.1811978608131433 0 0 1
2413 1 17.42549052679693 18.780227327329943 6.667125898153079 0 0 1
2604 1 13.277314638547734 16.412155273121737 2.823470974947119 0 0 1
3967 1 17.26764233330084 10.877319159477342 2.5559290027759203 0 0 1
5166 1 20.282943499481924 14.413431997404425 4.3618303657431134 0 0 0
3964 1 15.905504895714063 12.857158862315167 2.574549189759183 0 0 1
3961 1 15.508636990464431 11.931595543735586 3.987003286653787 0 0 1
5163 1 19.54421776295508 14.02108238394345 2.1014288910292875 0 0 0
2415 1 15.82319768045809 18.33395478920952 6.090826660626379 0 0 1
6183 1 13.17450238143286 19.734578191903367 5.759241569106649 1 0 0
6180 1 13.730797507269187 18.734972418945805 3.897310885211633 1 0 0
5158 1 19.425493292721292 16.44048933146856 2.8389346815360734 0 0 0
5159 2 20.218004482334536 16.08535495803078 2.1425927328511247 0 0 0
5160 1 19.903949870482034 16.261830611516118 1.1059137446874514 0 0 0
3058 1 19.11196484937681 19.715808777816914 9.568229529659579 0 0 0
6286 1 19.738052743961713 18.761729731815592 5.280812482200106 0 0 0
6181 1 13.571488248663062 20.374676441127953 3.071527621181691 1 0 0
2416 1 16.936175552422586 18.8371877120752 4.884407547503885 0 0 1
6179 2 13.133299073169633 19.652951144105934 3.772566867898093 1 0 0
6176 2 11.731840476649555 19.307880240704872 3.3151611799446887 1 0 1
6175 1 11.222184784978738 18.60834873799178 3.9727224028407737 1 0 1
6177 1 11.793018758155599 18.937734726016124 2.267129461948933 1 0 1
6182 3 13.109533647882028 20.32022204560516 4.979598031114255 1 0 0
527 2 20.207233578214286 14.455546586806179 9.932684986193715 0 0 0
528 1 20.285922426370924 13.328827478916848 9.977193905338597 0 0 0
530 3 19.79648224689957 14.87223768967136 8.612391698693907 0 0 0
3219 1 20.020544798564984 19.95105178081649 0.9528557712420433 0 0 1
4431 1 11.967162422261719 11.940104585790197 7.579687222774324 0 0 0
742 1 13.428867364367035 18.39010202096584 9.522751860795251 0 0 1
1879 1 16.302603853617143 12.042504828637808 10.087457612445691 0 0 0
1881 1 14.541844119789612 12.445233220913131 8.888295000227728 0 0 0
1878 1 16.532476256764742 13.37835624376012 8.758730184231739 0 0 0
1877 2 16.057762439813075 13.106220626624388 9.745760301081654 0 0 0
531 1 20.091893032041387 15.78096427238822 8.540389874305456 0 0 0
6178 1 11.181832494014694 20.3081166922103 3.4463082497363375 1 0 1
1258 1 14.74113992434035 20.30062183977673 8.561230063000304 0 0 0
3056 2 18.28437799530598 20.161536376486463 10.15383129738748 0 0 0
5887 1 18.88538942973594 10.727705725095934 9.896126876617029 0 0 0
5888 2 19.948431438479584 10.616660663437875 9.62156694014862 0 0 0
740 2 14.372673214448497 18.02112530905792 10.049382341498244 0 0 1
1880 3 14.638792359984938 13.19210265732213 9.5539509183424 0 0 0
583 1 12.248946614938944 14.457163577877584 10.135549246127841 0 0 0
5889 1 20.355682758156178 11.444484733737692 9.023862447617997 0 0 0
2609 3 14.74808262644715 16.960856398396007 0.6537691069652296 0 0 1
2610 1 15.177220852842542 16.194809271084154 0.2374023959187866 0 0 1
642 1 17.5526560213798 13.946076213915966 0.7300547990085136 0 0 1
4635 1 16.043572782825297 19.912484463218092 0.4206351982102258 0 0 1
2164 1 20.57920307753219 10.582187637155911 1.4740182922857181 0 0 1
5162 2 20.453260141425474 14.54741008263828 2.265281663584739 0 0 0
5165 3 20.980902532088486 14.298009442539332 3.6509430708881117 0 0 0
5161 1 21.11889793901332 16.688555134131338 2.3591548491658174 0 0 0
2308 1 25.513423432674543 13.283216611870909 1.260475997370291 0 0 0
2307 1 25.78099190605919 12.075217043740242 2.493548011446582 0 0 0
5164 1 21.245399904634045 14.162345776794812 1.6436765208969197 0 0 0
6289 1 20.97881115804459 19.170081053803276 7.692096718169808 0 0 0
6283 1 21.0306075254751 17.74618965238856 4.948608634854548 0 0 0
6284 2 20.73905160983721 18.613739009841098 5.570404377261509 0 0 0
3215 2 21.561690247132308 20.145316759918583 2.5343261233744037 0 0 1
3214 1 21.80094284755911 19.067161077436015 2.5702652813157374 0 0 1
6288 1 22.005126248554788 17.85980117622931 7.202419225973458 0 0 0
6287 2 20.996748375098356 18.294602183468278 7.024009949269868 0 0 0
3216 1 20.94435399392733 20.292832877610397 3.4242909220507305 0 0 1
2313 1 23.34243040766819 14.126777567770374 3.5220592186308313 0 0 0
2709 1 23.614098936485064 14.754446308404516 6.037414248809612 0 0 0
2708 3 24.376242705574196 14.300671547389909 6.498054098855176 0 0 0
2042 3 26.897635624437225 14.157700920634404 5.882624189580293 0 0 0
2043 1 25.927129905613185 14.154776696706561 6.142194497933125 0 0 0
3681 1 22.061567005400946 15.380051016820168 4.156131939624205 0 0 0
3680 3 22.73564131333394 15.814267988283289 4.829901935404984 0 0 0
3677 2 23.648035809842945 16.973190531245656 4.533207986161502 0 0 0
3674 2 24.464064374098417 17.261510566301737 5.769151741842554 0 0 0
3675 1 23.826500322425296 17.609065311915323 6.624391119844156 0 0 0
3673 1 25.05022292503843 16.368972389088555 6.120168589053002 0 0 0
2312 3 24.10985934597672 13.921924877086552 2.9708031597461524 0 0 0
3678 1 23.203286002915082 17.87716318640638 4.10759414102762 0 0 0
3676 1 25.1538099164665 18.026246571547375 5.552970678635523 0 0 0
3679 1 24.248967337936616 16.601292823861062 3.7420051157372076 0 0 0
2704 1 22.359903671676797 12.513401495624741 5.737918987804349 0 0 0
2703 1 23.847417971083196 11.586424578114649 5.5210058102439 0 0 0
2705 2 23.81786368434673 13.186129356992547 7.2355464745998415 0 0 0
2702 2 23.223263545211545 12.116705200672802 6.281913698169793 0 0 0
2706 1 23.065059739923036 13.630081508261048 7.924370022979252 0 0 0
2826 1 27.092332293378384 14.366177780778301 7.903528373956441 0 0 0
2707 1 24.661214217916832 12.782657504800579 7.802548885405521 0 0 0
2309 2 23.80234874333277 12.726206810442525 2.1839928861053233 0 0 0
2310 1 23.13250384698311 12.961521421321672 1.4000226421604398 0 0 0
2311 1 23.399533207628785 11.829896031737206 2.762587707511834 0 0 0
2306 2 25.14888809190338 12.37425041519311 1.6248301586652742 0 0 0
2039 2 27.260002411808923 12.763263075931912 5.709724898462263 0 0 0
2040 1 26.84942986143352 12.43665459694911 4.810792349591168 0 0 0
2825 3 27.156796781214013 14.429900587114242 8.884085636144313 0 0 0
2036 2 28.80470238337601 12.74470080238693 5.747935874695033 0 0 0
2035 1 29.140301097057716 13.36749162269602 6.597423739780336 0 0 0
2037 1 29.186994059567514 13.16562457922332 4.780947295528621 0 0 0
2701 1 22.637633024941426 11.318000068532726 6.7791118569854785 0 0 0
4608 1 28.943176972971372 15.586391824625466 8.462481254291959 0 0 0
4604 2 29.086140757863504 16.353878429557852 6.653932523340892 0 0 0
4792 1 23.706674573750917 19.970320909522723 6.743535683718434 0 0 0
6189 1 28.2477772747071 15.577895730519817 0.922970438044937 0 0 1
6188 2 27.293434183290987 15.571583135693595 1.4496034643553881 0 0 1
5763 1 30.09210198944681 19.1529455489058 2.4666713292636695 0 0 0
4607 3 29.388516918034654 16.30472088514626 8.051684644673939 0 0 0
2041 1 26.849037141244697 12.07990479397436 6.441578108077183 0 0 0
2038 1 29.119535706933746 11.694902369406645 5.898198190530679 0 0 0
2822 2 27.785267096938142 13.129760571217025 9.412181973708288 0 0 0
2824 1 27.028791415942848 12.369082799824694 9.293772459025602 0 0 0
4605 1 28.00073156348769 16.39734137177683 6.5714909181087 0 0 0
2823 1 28.726687702032862 12.947330263808428 8.801979508022061 0 0 0
3834 1 26.146855454196775 15.576201998889278 10.096660555038996 0 0 0
1037 2 30.401210378371186 10.32684553734015 1.8503137848541829 0 0 1
1039 1 29.47690470769406 10.45191753117599 1.3014868469873035 0 0 1
6285 1 21.450814813828455 19.416582365683922 5.364630090653535 0 0 0
5831 3 23.341234504455606 18.382828848237963 9.519985268665904 0 0 0
4233 1 30.052243192254167 14.193466988812622 0.0012143609751448965 0 0 0
6191 3 26.365387341450454 16.274000426204687 0.6305066255667809 0 0 1
114 1 30.531808764893412 10.556863728166132 7.472973120100129 0 1 0
4603 1 29.502233402286386 18.54683912822555 6.681712995756566 0 0 0
4600 1 29.466421020732295 17.88504358841829 5.054356942991107 0 0 0
4601 2 29.705901199036997 17.65424831595948 6.06313569858468 0 0 0
1067 2 27.420143353228994 20.344289805741017 8.267912836232988 0 0 0
1068 1 27.16205882803927 19.287039672570003 8.31359299251283 0 0 0
5832 1 23.591999771869254 17.4486991205296 9.427164304110715 0 0 0
523 1 22.26664647929362 14.412328420270255 9.832548494534516 0 0 0
1090 1 24.317087682653728 11.675163459333406 9.605156802146592 0 0 0
1065 1 28.525020030767724 20.36597176625059 10.144859280139285 0 0 0
6187 1 28.136585235255936 15.505170309932138 3.3654374409954 0 0 1
6185 2 27.41734342145541 16.1294508865585 2.8702825623783808 0 0 1
6186 1 27.696835047158853 17.12176037447814 2.8477744371364038 0 0 1
6184 1 26.5684340765832 16.034272522530454 3.4906067341146576 0 0 1
4360 1 24.719608793551984 20.054237904973487 2.1594594281231734 0 0 1
4606 1 29.345465402236215 15.503229255822458 6.063900580991558 0 0 0
1063 1 29.457020687653046 19.930124352603762 8.5669317430012 0 0 0
526 1 21.900979897236525 16.032669448668464 10.124227324260243 0 0 0
2305 1 25.124419142312576 11.529243017113897 1.0029394996967524 0 0 0
6190 1 26.9677538028517 14.510240993888704 1.4907548958761274 0 0 1
6192 1 26.56008745434143 17.256223884075972 0.8191959720129636 0 0 1
5765 2 30.457404635227338 17.50263171623838 1.1666543651089616 0 0 0
4365 1 27.793081001167636 18.91110404229034 0.7001919703357886 0 0 1
4364 3 26.936982237549635 19.03733523817936 1.2269287726874716 0 0 1
5767 1 30.017703081853004 16.64159879147424 1.703523004003718 0 0 0
5768 3 29.51114881318852 18.124392097433436 0.32248766350727687 0 0 0
3997 1 22.423993161233298 17.763684419719073 0.12942560306170914 0 0 0
4000 1 23.047117164618967 16.140339935907107 0.3118401209971719 0 0 0
4361 2 26.004319776147707 19.791359452335534 0.44219885203976594 0 0 1
4357 1 24.579505447627053 18.512815770377987 1.2550842331443375 0 0 1
4358 2 24.68529805898532 19.62401594095081 1.1313124242964552 0 0 1
4359 1 23.835223620075304 19.973409848456235 0.6136179453414626 0 0 1
3882 1 39.901420531663994 12.660638705343716 2.9237562204604277 0 0 0
3881 2 40.668623887277676 12.079637379812299 2.3627383974085228 0 0 0
2270 2 40.65378951035728 12.749837925659747 9.923865345729036 0 0 0
1038 1 30.923534086469644 11.28228500442206 2.0550988521952287 0 0 1
5761 1 31.31963159535341 18.131449548689165 3.064512545502478 0 0 0
4232 2 31.048477435161892 14.16016903151006 0.4608075002572772 0 0 0
4234 1 31.65909435569707 15.140390989516517 0.41243417582486613 0 0 0
4231 1 30.838069649659268 13.927086549254158 1.4789498086171744 0 0 0
5762 2 30.902996120515187 18.5628705127769 2.1199067632402704 0 0 0
5764 1 31.629481312666506 19.141527988201627 1.5817476945259696 0 0 0
6087 1 33.35524207337997 10.63059370126951 1.9561696175583785 0 0 1
3883 1 40.22465322088067 11.335067153369161 1.6583926201371495 0 0 0
5051 2 40.75535918962278 15.623620169576787 3.6968636074711823 0 0 1
1342 1 37.931267986782686 18.79482061272421 6.8595009818751835 -1 0 0
1344 1 36.85280613053027 19.46438702843633 5.549519884593096 -1 0 0
3486 1 32.20901393499112 14.587099681376385 5.586757115263722 0 0 0
4238 3 33.14290404921361 12.953359725438673 0.5169791525139401 0 0 0
6093 1 34.62315850702505 12.198528265256291 0.22653298150436452 0 0 1
705 1 36.739445073078066 11.049703730203225 6.739371455658804 0 0 0
6090 1 35.989787092096606 10.689247391355678 2.046489350455957 0 0 1
5053 1 40.66309830358169 15.73733837842337 4.786825143403211 0 0 1
4239 1 33.11668418448859 13.072032133012083 1.476543223332921 0 0 0
3487 1 32.78692739241308 12.923364519341106 5.388091186491918 0 0 0
3484 1 31.745536610726468 13.72458971338033 4.128834948796548 0 0 0
3485 2 32.56867969599946 13.854901719962477 4.867341852256719 0 0 0
5054 2 39.4618772684757 15.633324927645832 2.987151154579049 0 0 1
5056 1 39.60148705485881 15.330565357288847 1.9647181176769037 0 0 1
1972 1 36.726169320692996 15.617388371939628 7.2220190874995085 -1 0 0
1978 1 36.51559330729138 13.374126306209405 5.999678342815101 0 0 0
1974 1 37.11304400247789 15.542284757419237 5.443847808697616 -1 0 0
1973 2 37.40612552005086 15.211787315910115 6.5033834607963685 -1 0 0
1980 1 38.699593492951024 13.541128559616435 4.952460998160273 0 0 0
1979 3 38.64436486675829 13.140491929659673 5.875179153056028 0 0 0
2277 1 39.906132038480216 12.969082581988111 6.7745479630304715 0 0 0
2275 1 38.88395239996061 13.431278513890186 8.916954251564404 0 0 0
5057 3 38.582717284579545 14.67450367367291 3.6685278229234863 0 0 1
5058 1 37.863116511881316 14.308515643271441 3.1295483027068256 0 0 1
2276 3 40.48859433401974 13.026851110145897 7.617614315987768 0 0 0
1977 1 37.47466971617427 13.188792343410725 7.546394480694542 0 0 0
1976 2 37.439430856177225 13.664295123928353 6.476350164385479 0 0 0
3489 1 33.52185965847564 15.345684958098763 3.7529038834781443 0 0 0
3490 1 34.56308418741096 14.69352088532083 4.842842970481579 0 0 0
3492 1 35.09902445402492 13.789416703220436 2.6211091347083912 0 0 0
3491 3 34.31314051364302 13.539233400981276 3.171383613946588 0 0 0
3488 2 33.78778386144775 14.419941046124205 4.184293402340338 0 0 0
5318 3 36.766464054383654 13.599587561939337 1.7192909441127122 0 0 1
5319 1 36.63151424009678 12.761954667129796 1.2089546822101767 0 0 1
6092 3 35.43935102447863 11.700284190616394 0.3242499789914525 0 0 1
2273 2 39.75279038980231 12.667418075677022 8.779042340280089 0 0 0
2274 1 39.37439307692986 11.683746229302997 8.707493917079518 0 0 0
1440 1 31.042871857059172 16.577645743027723 8.392048974137735 0 0 0
6089 2 35.35390834747435 10.54127161813472 1.1199446853861665 0 0 1
5315 2 37.044439639490314 14.76971164369417 0.8934502775024005 0 0 1
1975 1 38.33124249489445 15.603957451358301 6.785887570574412 -1 0 0
5115 1 32.95431363341124 19.84481006537491 3.8202672550015593 0 0 0
5055 1 38.914673612708754 16.56085733295671 3.145123711722849 0 0 1
5117 2 34.758663203840285 19.23274529602098 2.639208211966307 0 0 1
1436 2 32.78820082494297 15.788101174696989 9.028769062107466 0 0 0
5119 1 34.41946072514037 19.59008131927545 1.7002355414235402 0 0 1
4957 1 33.30817011584984 19.82344025707699 6.683945570384025 0 0 0
5118 1 34.76478344616134 18.11859952143496 2.642598747288182 0 0 1
1437 1 32.5932048897168 15.002165865605837 8.286807186251881 0 0 0
2493 1 39.80831761551979 19.019844035348633 1.9638987887872277 -1 0 0
1349 3 38.61909566948324 19.3278018271546 3.615765721059605 -1 0 0
4602 1 30.826746258930076 17.369292928081286 5.965206165493448 0 0 0
1343 2 37.85013143847346 19.404270822478917 5.956775900500351 -1 0 0
5312 2 36.46202982292665 15.940447083140524 1.6625214588118327 0 0 1
5311 1 35.334353487524524 15.808903070205266 1.7555093052967192 0 0 1
5314 1 36.93976582728998 16.15324348668625 2.6665991223160757 0 0 1
1346 2 38.77747014149383 18.80909366416919 4.906760053049401 -1 0 0
1432 1 34.677274040487546 16.315414348433162 7.988018017918409 0 0 0
4955 2 32.947351613836936 20.26655277684862 7.664065148411959 0 0 0
4953 1 34.98100393346539 20.30974202962214 8.383046229422543 0 0 0
2492 3 40.20285488902823 18.581069990438923 1.1656956329884605 -1 0 0
1348 1 38.76992757118935 17.71277530715902 4.986197059594554 -1 0 0
4959 1 31.959183313078032 18.817683669609693 8.339501624785374 0 0 0
1439 3 31.9000126414894 16.93805563517034 8.695156172830966 0 0 0
4952 2 33.9771244338868 20.170980028010156 8.80472884233032 0 0 0
4958 3 31.688207501597745 19.722859059250833 8.025894210713002 0 0 0
1438 1 32.407344824994404 15.47949709405892 9.992643774273215 0 0 0
4954 1 33.66297133825847 19.19848073856006 9.288873463681641 0 0 0
3082 1 38.307259599097016 10.958378016794118 0.023697704331195085 0 0 0
4236 1 31.399432148144786 12.130962303928033 0.061125097932723804 0 0 0
5317 1 38.112155883970296 14.910139419142272 0.8506262170208826 0 0 1
1433 2 34.218671481284794 16.202318014525822 9.049087843804442 0 0 0
1434 1 34.780405796615355 15.428852074653168 9.554456174266662 0 0 0
2491 1 38.29850661803026 18.038673587473767 0.5797299251765946 -1 0 0
2489 2 39.19382041176014 18.390108027519396 0.11813346209047086 -1 0 0
5113 1 34.332751174252806 19.296049934438482 4.7954172430791 0 0 0
5114 2 34.06770219593306 19.841897258626318 3.867699440337336 0 0 0
1350 1 37.74144043361571 19.37593406058279 3.248085698810246 -1 0 0
5120 3 36.101246776072145 19.59120332499681 2.6651937788772027 0 0 1
1347 1 39.783636023817735 18.93366502983587 5.128031801013034 -1 0 0
1435 1 34.45139752070826 17.041318919729054 9.673679473626176 0 0 0
4327 1 40.04705528310245 18.9418252329579 9.624478042727619 0 0 1
5313 1 36.64776668341905 16.810235073316814 1.0131864626579892 0 0 1
5766 1 31.35540999525451 17.210115870554173 0.6320399350756134 0 0 0
4836 1 34.327603429438035 17.68183159845834 0.4016305106231351 0 0 1
3856 1 2.439602205843592 20.9143466377474 5.654041870746652 0 0 1
470 2 4.665913307303106 20.565884818904987 8.131939438193374 0 0 0
472 1 3.7978002488956015 20.90058154210772 8.728989404723162 0 0 0
5632 1 3.2485207782181806 20.932772837692397 0.8681683629402821 0 0 1
3708 1 10.066165727204334 20.778960564774593 6.556700357783573 0 0 0
4785 1 7.017111702278622 21.249894434934866 4.102283295337666 0 0 1
4782 1 6.886222705294758 23.086849493258498 5.851178965322718 0 0 1
4788 1 4.63977320573401 20.81629770496513 3.2765224843523226 0 0 1
4780 1 6.513177364216659 23.60836460667188 4.070023693333248 0 0 1
4783 1 5.3320963295134005 23.522114011093826 5.320991645604755 0 0 1
4781 2 6.277041836411158 23.065903696697028 4.972155701323229 0 0 1
4786 1 5.60139345801399 20.971724823290643 5.227035617016708 0 0 1
4784 2 6.030207423477934 21.60810646781671 4.487505973730503 0 0 1
4787 3 5.097277760846405 21.65280473969857 3.361220848613189 0 0 1
4075 1 0.07160654813375263 22.70672295620873 6.7129903708960015 0 0 0
4804 1 4.752759054972259 27.09097832304436 9.28949060183517 0 0 0
4802 2 5.047134074228187 28.149738224388383 9.390599541005857 0 0 0
4803 1 4.047088421717561 28.683577005064148 9.454255050364923 0 0 0
4801 1 6.918575631298515 28.651257218846737 8.355756138359896 0 0 0
4798 1 5.58110879858406 29.915582928765 8.359811972464318 0 0 0
4799 2 5.848431343516773 28.83328810139461 8.261442407510557 0 0 0
4800 1 5.589255219629185 28.54048529033121 7.259171611285387 0 0 0
2448 1 3.7768858797744285 22.97642381369807 3.262886736427702 0 0 0
1109 2 8.706306967925823 22.20973885402873 8.789239183234624 0 0 0
1110 1 8.342802137106814 22.84309809892745 9.58295126808432 0 0 0
4672 1 7.44169016197691 27.248685812376394 4.0113488807417825 0 0 1
4673 2 7.514446596090287 26.90454640439002 5.034322627937703 0 0 1
471 1 5.119899834650759 21.433180529978635 7.640849372327405 0 0 0
4675 1 6.504902022237652 26.69131708178287 5.373531516939834 0 0 1
4679 3 9.745460504718652 26.114099487561546 4.911403466769015 0 0 0
1108 1 7.858607245076775 21.822822588456603 8.19443099076525 0 0 0
1111 1 9.335393514420376 21.4224033699817 9.205752055377808 0 0 0
4676 2 8.420070140884635 25.706605247580647 5.145675869785114 0 0 1
1112 2 9.641763967496331 23.033284164083177 7.997142610994248 0 0 0
1115 3 9.989601482476944 22.301974714727592 6.834942755612471 0 0 0
4674 1 7.903097503139522 27.704805326224527 5.633408073447661 0 0 1
4678 1 8.084598987282792 24.89674723303527 4.392582815690543 0 0 0
4677 1 8.295273398457677 25.29140319592595 6.227058311531805 0 0 1
5567 2 9.243107011619934 26.73903940763297 1.5335346272001875 0 0 1
4613 2 8.114613763858396 21.20149549393992 1.3815143309330076 0 0 0
5564 2 9.678567011326507 26.204722435950337 0.22501263914056374 0 0 1
3038 2 4.796586290274525 25.952672209450153 2.8144451745067682 1 0 0
5565 1 10.084398299715142 25.177073081635584 0.41033919265319985 0 0 1
3036 1 4.953622093123392 24.360143438025524 1.5944380362431705 1 0 0
3041 3 3.4413987194214184 26.196540588430853 2.571548306147741 1 0 0
4616 3 6.759209822022542 20.7674945743609 1.4539310505069576 0 0 0
4617 1 6.217452284322874 21.192169786474498 2.1657279083228227 0 0 0
3039 1 4.9060420776245985 25.317753848319246 3.694087757947085 1 0 0
3040 1 5.25326707337717 26.942773897963225 2.9191157431964347 1 0 0
4345 1 9.358651356192828 27.271988492706324 7.2456812633229575 0 0 0
4615 1 8.19907506181542 22.276568459071306 1.5566392427198694 0 0 0
6156 1 2.489037868394303 27.59878647832354 2.5243106657931733 0 0 0
3035 2 5.575820384827687 25.266296250481346 1.671086679006052 1 0 0
3037 1 6.632822081680804 25.004109011904415 1.8625036433663762 1 0 0
3034 1 5.487627309453063 25.836698652590787 0.7413652479702144 1 0 0
4614 1 8.634510768426464 20.80258827637559 2.2418055791301743 0 0 0
3042 1 3.00076643824366 25.388867026131066 2.8508447394252627 1 0 0
4346 3 9.144758914134442 29.40641341147577 7.557462458002881 0 0 0
4343 2 9.813967651046331 28.165762487131783 7.826746904181735 0 0 0
4347 1 9.128634532847272 29.43873616475857 6.613396308983199 0 0 0
2447 3 3.067699610306636 23.622596066339497 3.1397835925355237 0 0 0
6155 3 1.9727375910332559 28.291869216155966 2.108703419929492 1 0 0
2445 1 1.6446969772233693 23.87280968285104 4.6827713708757175 0 0 0
516 1 0.13565359549551434 27.785911630770585 6.328303180108868 0 0 0
2444 2 1.7959909103033818 23.273606351797262 3.751938102104121 0 0 0
2446 1 1.748013152141136 22.266126307603262 4.067897027445581 0 0 0
2484 1 1.1581755577482449 29.15447624892202 3.4885670304373133 1 0 0
2483 3 1.0878673661637743 29.49504055795364 4.409651563587002 1 0 0
964 1 1.5203633650927402 26.087206024809742 7.176700702252449 0 0 0
2441 2 0.747005859570808 23.666414275061832 2.721762723350756 0 0 0
2442 1 1.056882727321768 23.115558038145604 1.8309377366758344 0 0 0
965 2 1.9014459821677534 25.899465542052226 8.195841468023065 0 0 0
967 1 2.8239795988913254 26.409972276938994 8.45879873786452 0 0 0
5569 1 8.77521315395458 25.869396259115543 2.1246349573773538 0 0 1
44 3 8.287930595647637 30.151822848233262 5.018077515655247 0 0 0
45 1 9.138963672888549 30.07714289441309 4.474992821973145 0 0 0
1113 1 9.190245337374648 24.01706803058589 7.717103547097182 0 0 0
2443 1 0.8230689832213701 24.722334776361595 2.535880773138519 0 0 0
43 1 7.680360087761788 29.61485432582657 3.240653470508771 0 0 0
2482 1 2.4991686662795276 30.2134377080701 5.812415988697716 1 0 0
42 1 6.535918333766132 29.341512531688217 4.6899430915831815 0 0 0
41 2 7.2261638115545095 30.006794686092054 4.1271271031059324 0 0 0
2480 2 2.319741806520229 30.1636491051688 4.728277616398519 1 0 0
4610 2 8.673987843049021 20.82710907577177 0.009510907926127708 0 0 0
5568 1 8.478721623066013 27.535803898317592 1.4507681970678228 0 0 1
966 1 2.0290254321418866 24.86082937978564 8.389764162473616 0 0 0
6154 1 3.4037297375409157 29.003866794543946 0.7105941577122976 1 0 0
6152 2 2.429101997114662 28.471443041283386 0.8015624552968532 1 0 0
970 1 0.5482983753228942 27.41709603525477 9.024202088905643 0 0 0
968 2 0.7654657663195963 26.36292933783846 9.129446363967471 0 0 0
6151 1 0.41648266458093375 28.799909029428484 0.0710241039892599 1 0 0
6150 1 1.314615753052984 30.30971571314145 0.502884662018093 1 0 0
6149 2 1.4157581556321757 29.271661590713816 0.0839289184044724 1 0 0
2481 1 3.193993937247463 29.638149945558602 4.280447585458825 1 0 0
475 1 5.720961599455466 20.487387601487438 9.937923951926885 0 0 0
4340 2 9.88302754184869 27.849728314536602 9.252691298567255 0 0 0
4339 1 10.130407112347672 28.690041976408104 9.852820391931175 0 0 0
4342 1 9.064649669978353 27.426491335075536 9.76691805553473 0 0 0
5084 3 1.1750219956435075 21.5240061854406 9.67093206448072 0 0 0
5082 1 2.5411934954716515 23.005804956911334 9.660582273517976 0 0 0
6153 1 2.497017804247307 27.51253511411847 0.2927517611002245 1 0 0
3642 1 5.5983677301736225 30.432913644395853 0.3576769169704038 1 0 1
4344 1 10.882676061772377 28.26617547030997 7.532372606398731 0 0 0
1255 1 12.732413405296477 20.99588772613373 9.410822906377723 0 0 0
1575 1 10.638079732964073 29.141174191204595 2.9901920039477115 0 0 0
1574 3 10.596937772631433 29.776451435050163 3.6816692748421525 0 0 0
3057 1 17.452294691501326 20.528446571363787 9.477822429221693 0 0 0
5571 1 10.299341549825437 27.04302079642357 3.2654592684917905 0 0 1
4680 1 10.344330361996183 25.34585449735161 5.101652962635368 0 0 0
1116 1 10.771489949981762 22.73623685996768 6.360658819472458 0 0 0
5570 3 10.418826155616339 27.11206427539726 2.323230474738551 0 0 1
1114 1 10.58399829188718 23.248479711609278 8.551625904727162 0 0 0
1257 1 15.664888426396871 21.323067281926004 9.612004453557876 0 0 0
1256 2 14.714916290043604 21.24585235199774 9.07532500430855 0 0 0
4111 1 15.525500733340461 27.030001349488444 9.32994247640718 0 0 0
4109 2 14.988159140575696 26.113580037700736 9.280123368069123 0 0 0
4110 1 13.985873032232636 26.34915824577928 8.79443245529791 0 0 0
1259 3 14.478543098837461 22.32629992603453 8.113035762283282 0 0 0
4536 1 17.152045916352975 26.30615183322754 7.728042713305013 0 0 0
791 3 11.478279195366474 24.206545363677176 5.473330360350577 0 0 0
108 1 14.88076421636648 21.135024282783323 5.2154744688747225 0 0 1
107 3 15.756799430840005 21.43033104262032 5.556908150900087 0 0 1
4532 2 18.732326972072293 26.686670539962083 6.867147044104562 0 0 0
1782 1 19.453818735931144 26.992264273255103 2.6160774548154535 0 0 0
104 2 16.473551011003945 22.226711390703407 4.628061687283994 0 0 1
1260 1 14.871655926564308 22.036424702768862 7.26400641497788 0 0 0
1781 3 19.158895424903225 26.188545028908823 2.1185907541675233 0 0 0
101 2 17.254414269584576 21.364351839833873 3.655540090804281 0 0 1
102 1 17.888491519473966 20.7648995488469 4.258971090691831 0 0 1
106 1 15.747721111697517 22.95569516478036 4.1152203271988075 0 0 1
787 1 13.252164395759628 25.980488129851622 4.879696802320136 0 0 0
1779 1 16.99902498899466 25.999512639586612 2.134240463589789 0 0 0
1778 2 17.854621267279853 26.415190073583094 1.573148993023834 0 0 0
4533 1 19.28231768334304 26.513661108184 7.826447160941331 0 0 0
792 1 11.71685453817916 23.915937502322212 4.567980597548289 0 0 0
4535 3 17.37374378411403 27.061795170711687 7.1834257943560385 0 0 0
1775 2 17.80593344343957 27.912041458737928 1.2592801614036855 0 0 0
789 1 13.381217290881935 23.738112633437122 6.059757724536859 0 0 0
785 2 13.221035451500606 25.883581736313012 5.920280109334878 0 0 0
1777 1 17.696602664919027 28.47364759087167 2.1898466605923885 0 0 0
1774 1 17.06258090258554 28.22585315159991 0.5273859678514581 0 0 0
788 2 12.62878993532848 24.533209763638936 6.27504390562699 0 0 0
105 1 17.206209038480953 22.852239775457967 5.204199300007433 0 0 1
4274 3 11.842884237639208 24.07694627559675 2.7070576160376816 0 0 0
786 1 12.68459128314241 26.71719966529137 6.395616442119487 0 0 0
790 1 12.402089669196622 24.413496052959832 7.319231876291318 0 0 0
784 1 14.228058416651596 25.843947495887246 6.30732139305751 0 0 0
4528 1 18.74586227539391 24.393164730622168 6.4500504934428164 0 0 0
1776 1 18.80933644996447 28.1237044108282 0.809284808228565 0 0 0
1780 1 17.889108127301885 25.952269154795957 0.575749697290999 0 0 0
4275 1 12.279564685250115 24.985373162969235 2.5546094426712314 0 0 0
103 1 17.88740939608844 21.9730800200699 2.9928463805025918 0 0 1
6082 1 14.90890342595416 26.538963669893544 1.7852345667529383 0 0 0
6083 3 13.042647781396495 26.36753733204467 2.3941102562097902 0 0 0
6080 2 14.095800540576757 27.17050340017631 1.7385051676523284 0 0 0
4112 3 15.701233285099327 25.22095756772849 8.378618065980167 0 0 0
6084 1 12.128157752652069 26.76029312774507 2.2570856833093074 0 0 0
6077 2 14.44718728455676 28.458695397747718 2.430707549191434 0 0 0
4113 1 15.28024637555385 24.357359123490713 8.40955862782549 0 0 0
2520 1 17.26776590450215 28.700804425681273 8.13641199534223 0 0 0
100 1 16.46966533469828 20.712205139100494 3.1073332962939633 0 0 1
4628 2 16.15504293971937 22.96294636169396 0.2703694105933024 0 0 0
6081 1 13.77324801365787 27.4152725497819 0.7604758859096149 0 0 0
4534 1 19.06861410354959 27.581102829276777 6.340109060599862 0 0 0
6079 1 13.820753455478444 29.34710637835633 2.2007710057856396 0 0 0
4271 2 12.66376028935787 23.074284956831786 2.016153045878859 0 0 0
4273 1 13.679857527718758 23.14104278016149 2.4824021413196005 0 0 0
4272 1 12.153943784057077 22.158466873679938 2.321617533363975 0 0 0
774 1 14.771741275452088 29.731312288516595 9.145384287346538 0 0 0
4627 1 16.306905796923477 23.00255361997592 1.3323666952937032 0 0 0
6078 1 14.573973386098878 28.24625422477482 3.4356850379478865 0 0 0
769 1 13.005461513531296 29.43050151241622 6.143843377341117 0 0 0
767 2 13.786104401002326 29.756003453872818 6.860183923349259 0 0 0
770 2 13.05477195341112 29.980064471763555 8.212791892321741 0 0 0
2518 1 18.8644570379596 30.08588543919889 9.122701373074188 0 0 0
766 1 14.413613429962842 28.88223861143369 6.966518253945091 0 0 0
1253 2 13.538588406500212 21.24260319129551 10.084836016319123 0 0 0
2519 3 16.927484337624232 29.403926922778112 8.76719850528726 0 0 0
2516 2 17.869023327601916 30.42199645216992 8.842154721004485 0 0 0
4529 2 18.806329199276547 25.37208739893601 5.971384382858509 0 0 0
4531 1 18.14426028966929 25.43294919019376 5.122616455866308 0 0 0
772 1 12.486988670686149 29.11230454869589 8.614212326373403 0 0 0
773 3 13.983621128808489 30.241443664002173 9.267579371755033 0 0 0
6076 1 15.421899072418173 28.697816035576675 2.0641141306324284 0 0 0
4634 3 15.473873569423274 20.685674056446 0.2998036776882428 0 0 1
4267 1 11.624467852828051 22.91159404720962 0.20968658620766795 0 0 0
4268 2 12.636519829008552 23.255549390540285 0.5143571596275806 0 0 0
4270 1 12.677665363620166 24.300270045687505 0.1800131967281989 0 0 0
5031 1 20.233078855509934 24.52927056366387 2.2027965422383304 0 0 0
3220 1 20.223594722490226 21.61755827173692 1.581740160059734 0 0 1
4530 1 19.798703589871263 25.5173176960564 5.611436521991921 0 0 0
4341 1 10.693672486018757 27.137863617331885 9.432014090752173 0 0 0
4269 1 13.39283775758606 22.593853329581613 0.08239005479083879 0 0 0
4789 1 23.13232254843773 21.612571864328384 7.178840425660733 0 0 0
4790 2 23.921674959192398 21.046482009327672 6.764730480653008 0 0 0
1069 1 26.579478935492144 21.001981597767397 8.576004594640851 0 0 0
1066 1 28.889945347535576 21.731068311631134 8.891471526911163 0 0 0
3217 1 22.479855261284047 20.770220824792336 2.703304557153512 0 0 1
1064 2 28.70665355067461 20.593192507851793 9.019914441740383 0 0 0
5026 1 20.703657038354805 22.270846296313454 3.906536247338342 0 0 0
5023 1 20.651636808368785 23.762808291275405 4.697673762114341 0 0 0
3218 2 20.760220341178762 20.649274695818743 1.3170791211447839 0 0 1
4794 1 23.79007550862749 21.353591689633994 4.618135270119173 0 0 0
4793 2 24.47862819323448 21.505318759438875 5.4404194530857115 0 0 0
4791 1 24.767311706950004 21.232768780541132 7.479170362412981 0 0 0
916 1 28.33826643882671 20.482033612058878 4.4293273834367115 0 0 0
4796 3 25.637245181518914 20.713280589726534 5.105528645529944 0 0 0
4795 1 24.71649751386528 22.5845022653689 5.467827579647813 0 0 0
914 2 28.493088228280293 21.24839910070599 3.596603767774693 0 0 0
5030 3 21.118540577942035 24.052532373481924 1.9158034565953619 0 0 0
913 1 30.01860609399754 22.350495945461017 4.710432577569563 0 0 0
3295 1 21.236048994124523 23.46611661318596 9.032645194455016 0 0 0
5024 2 21.34356185215461 23.090787324367135 4.181710495624712 0 0 0
5027 2 21.973909411696138 23.69558264436035 3.0031933457478845 0 0 0
5029 1 22.68162304209632 23.155681254865694 2.4326697219557643 0 0 0
5025 1 22.115561996319254 22.718895609828632 4.866379165715184 0 0 0
5028 1 22.504973148463034 24.663962725920037 3.2763673508811118 0 0 0
1278 1 21.12713021052599 23.875425006147452 0.14598741836023643 0 0 1
539 3 20.580133948346774 27.8640589447347 3.701155834409254 0 0 0
538 1 21.517216473067382 26.68052087484391 2.3862589058926917 0 0 0
3297 1 22.167902357019297 24.859136381584864 9.510192419562307 0 0 0
915 1 28.46646646022352 20.663601147643746 2.665029958041615 0 0 0
3153 1 23.714183658306922 28.230850172002288 9.118811677467475 0 0 0
540 1 20.806661495842928 28.653553175492625 4.241896336770997 0 0 0
534 1 23.052971565753793 28.797161548841995 4.0468098061942 0 0 0
532 1 22.893880584632992 27.14565377936542 4.7865890380351654 0 0 0
533 2 22.9757216115364 27.706725394023916 3.8361879508483465 0 0 0
535 1 23.960557171005124 27.37818687783083 3.347284781562263 0 0 0
911 2 29.919822991721006 21.886944361312217 3.6962954182618497 0 0 0
918 1 27.167334574128187 22.59831800702294 2.854839340022712 0 0 0
917 3 27.3881900733918 22.151650845222836 3.7383433240874266 0 0 0
536 2 21.771148340404036 27.61912951541132 2.8747629653278395 0 0 0
910 1 30.121181636345003 22.668596477503396 2.9645903318057583 0 0 0
4797 1 26.157750739589318 21.153671700097078 4.41003128094083 0 0 0
537 1 21.861288359623252 28.415890952938824 2.065148934236565 0 0 0
4443 1 26.268653356975754 28.635740799611444 3.522968515598813 0 0 1
1071 1 26.848982812089403 20.53097483959536 6.250121377988216 0 0 0
3594 1 24.12988364363698 24.166895655207103 1.6918423736957853 0 -1 1
3597 1 25.748733727400058 22.45529739089495 0.5426091346855992 0 0 1
3596 2 25.80317170712279 23.506579144995936 0.5709164346993262 0 -1 1
3593 2 24.455363358745334 24.194836964455767 0.6849172769150113 0 -1 1
1826 3 25.837749140070386 28.296581955085042 7.327161100559324 0 0 0
1827 1 26.090183648007297 27.352624359489184 7.174361180704798 0 0 0
4442 2 26.696336603941855 29.64303460542124 3.544127573710733 0 0 1
4446 1 26.7823062168338 29.4191327768722 5.563544232043604 0 0 0
4444 1 27.71955703882156 29.6797068189135 3.16184418135573 0 0 0
2250 1 27.635711428939796 22.739487421517996 7.131517509479888 0 0 0
810 1 26.56457824397403 24.90586909763898 6.9322950141564785 0 0 0
2249 3 27.80622722257472 23.601311344949877 7.5105205398925 0 0 0
1070 3 27.672444090552787 20.662973163851156 6.818607625828628 0 0 0
809 3 26.044253760937412 25.728314118600174 6.889319427986721 0 0 0
2246 2 29.058789039313645 24.05948185095758 6.983798741783501 0 0 0
3592 1 24.619311235445846 25.231756168199063 0.36506550761359724 0 -1 1
3599 3 26.668786882646764 23.955544943042554 1.6075242759506914 0 -1 1
3600 1 27.43300477645776 24.464882551074677 1.2564776985781492 0 -1 1
6300 1 28.582374697442873 25.89976739458659 2.3080176037915425 0 0 1
6299 3 28.537688291489957 26.00247172397876 3.2705675901070452 0 0 1
808 1 24.75798071129988 26.37709948033809 5.417988749951311 0 0 0
806 2 24.97586014087308 25.458230173096517 5.987301900195252 0 0 0
807 1 25.35613509288553 24.67941726711649 5.279900638064002 0 0 0
1825 1 27.85140605461457 28.969675249962084 7.515736095292153 0 0 0
803 2 23.657686219191067 24.996966093866757 6.663753245472693 0 0 0
802 1 23.005875860901295 25.642643962420244 7.250781866551603 0 0 0
805 1 23.09987783922777 24.532550298477908 5.89229402928394 0 0 0
1823 2 26.81914101722874 29.039675164473234 8.058749023747069 0 0 0
804 1 23.810902837479784 24.151532978836503 7.347745897170445 0 0 0
6296 2 29.385779350661597 27.128888682211024 3.534144081836869 0 0 1
6298 1 30.10088951187343 27.28505824630206 2.746627214410188 0 0 1
2248 1 29.785982155960742 23.17407741941856 6.892107755555432 0 0 0
2247 1 28.816893624726625 24.458504694457528 5.999758796498772 0 0 0
6297 1 28.750129324260065 28.05662566817949 3.573846418601449 0 0 1
1820 2 26.972878268483093 28.517618079937634 9.402138338324917 0 0 0
6294 1 29.52397537703305 27.014798636723654 5.668588254557608 0 0 1
6293 2 30.15145932453846 27.003740456876173 4.793782252467225 0 0 1
1821 1 26.02439699467907 28.52193880759164 10.00051929279132 0 0 0
2556 1 22.027367032693068 30.562181565629043 5.777259897394986 0 0 0
3151 1 22.39308918212194 28.953591075091033 10.06626755658885 0 0 0
3152 2 22.854355895447277 28.84147787270092 9.098246207640187 0 0 0
3155 2 23.13494222793283 30.261924230477522 8.594192135462007 0 0 0
161 3 28.454193562430394 25.910765313532817 0.47856737094830115 0 0 1
6226 1 25.843503343865617 28.410335797060135 0.6860697496776621 0 0 0
162 1 28.02516143025769 26.659261613961426 0.0023886370948360746 0 0 1
2244 1 28.633397865989114 25.85284708991095 8.116081560301533 0 0 0
2243 2 29.390957317470257 25.074950181458135 8.033352438198566 0 0 0
2242 1 29.47379435765968 24.710622912048866 9.046525837255654 0 0 0
1824 1 26.47549919696716 30.090994850211537 8.103332154738078 0 0 0
3154 1 22.065558078972035 28.215993068213717 8.46122969592142 0 0 0
1819 1 27.4125576274083 27.49387161357037 9.493708330498706 0 0 0
5791 1 26.88946372843907 22.78237550680072 9.659237004869581 0 0 0
4363 1 26.302726075121665 20.806042816026405 0.5130061124736723 0 0 1
154 1 30.48926676276953 25.679648755901393 1.6169582351382723 0 0 1
6222 1 23.72144139213861 28.810900790165924 0.1097159216868751 0 0 0
2883 1 30.380449570329308 29.6843261823509 7.09933029566676 0 0 0
2245 1 30.31473488915022 25.73715115612864 7.8875186978999565 0 0 0
4445 3 26.776434603462185 30.089732580356355 4.871211738116992 0 0 0
4441 1 25.38811740307899 29.897685429003072 1.9437706093725449 0 0 1
4439 2 25.77104595768173 30.518761335905154 2.78078257096795 0 0 1
3158 3 23.573900898366208 30.179476860591766 7.20126909525721 0 0 0
3159 1 24.245090168942838 29.433748855814805 7.218381023100686 0 0 0
1822 1 27.609146002373347 29.278793365947624 9.837784743517185 0 0 0
3296 2 21.51435901828429 24.020412319968592 9.885861172451431 0 0 0
3221 3 21.622076173275197 21.015663136602342 0.21414827435599318 0 0 1
4956 1 32.800383496902846 21.333268151238123 7.425495537588108 0 0 0
4073 2 40.029173459500655 22.482018141357035 7.3472059537706444 -1 0 0
4074 1 39.846721546364854 21.431963606348287 7.3352072813577935 -1 0 0
4072 1 38.92062452910441 22.78002436876154 5.596940451455327 -1 0 0
4076 3 40.07289628363667 23.000657208051972 8.692477662287306 -1 0 0
4077 1 40.76648358835595 22.52623123686391 9.223218692988443 -1 0 0
2440 1 40.542766922340725 23.263288564045485 2.938541971615784 -1 0 0
522 1 40.286822196065074 29.84851511629055 4.7251076851707365 -1 0 0
6292 1 30.613281330696477 26.012060643681913 4.819425237662397 0 0 1
6295 1 30.974795319951674 27.684818860334172 4.962739614071906 0 0 1
912 1 30.71237643303792 21.10842486094274 3.6599573369961433 0 0 0
1345 1 38.14291237025522 20.40185931705779 6.2212281833662875 -1 0 0
4951 1 33.81231321586938 20.883312839974238 9.595404228168501 0 0 0
4070 2 38.913228161715644 23.170355538746232 6.585019457455753 -1 0 0
515 2 39.87725652914631 27.580805033064983 5.969307489261769 -1 0 0
5116 1 34.32110887917525 20.911731865175692 3.970202967441481 0 0 0
5121 1 36.05699403149369 20.540962594859298 2.7531748489215855 0 0 1
4069 1 39.098317712421604 24.258670062985335 6.495659283827947 -1 0 0
4071 1 37.884842121519455 23.062239479809087 6.966692485975701 -1 0 0
514 1 39.66291545687059 26.8098842312754 6.708970410526084 -1 0 0
517 1 40.06458887755588 27.203505590325637 4.923999861537064 -1 0 0
1732 1 32.829426828591 30.317820279267348 1.3722325381236424 0 0 1
1747 1 32.79645333582154 21.646681043509073 2.5838871478884164 -1 0 0
520 1 39.09586836379375 29.443707196746423 6.831219690284396 -1 0 0
1748 2 32.84987934383365 22.693536460022464 2.3366855900041066 -1 0 0
972 1 40.53677291270749 24.70689131174818 8.684725247690475 -1 0 0
4708 1 32.09571054466951 26.11064774277227 3.094663129953262 0 0 0
4711 1 33.40905700497671 24.919030649163073 3.0962457757206567 0 0 0
4709 2 33.08660294324579 25.920916546057533 3.387579063836479 0 0 0
4713 1 34.11036734364084 26.845144431736024 1.71879174972932 0 0 0
4714 1 33.73883303479272 27.969126199950413 3.173238267059107 0 0 0
1685 2 38.47004512545845 26.898441962440504 2.0124033102820613 -1 0 1
1687 1 37.69996262678853 27.554699049929525 1.569028204573755 -1 0 1
4712 2 34.085558768313255 26.940715205179245 2.8607668349101374 0 0 0
2196 1 35.57635354252813 26.184899285626205 8.096347392536035 0 0 0
2195 3 35.096477354994754 27.050023614146113 8.10621055525836 0 0 0
4716 1 35.33993246528833 27.148552908249563 4.249032984072293 0 0 0
4715 3 35.38427255667337 26.717763857161366 3.3962153236912083 0 0 0
1692 1 36.429323094431645 25.633484300604653 2.6163937765209746 -1 0 1
1686 1 38.58551635931674 27.083360695233118 3.0681107577150986 -1 0 1
1691 3 36.95517930394947 24.938192847090495 2.2323442153307815 -1 0 1
1688 2 38.188593282788695 25.424538909631554 1.796880013416751 -1 0 1
1690 1 38.886515715585766 24.735843917233314 2.3315218007904916 -1 0 1
1689 1 38.28114963904768 25.07502939422547 0.7582330595877274 -1 0 1
1684 1 39.41354493163633 27.200213605459542 1.4733571013074938 -1 0 1
1755 1 35.97012396743022 23.361851858027542 2.6328054806743117 -1 0 0
1754 3 35.201999871880375 22.826977338470513 2.877436535823082 -1 0 0
1751 2 34.273136173488126 23.028442264094913 1.8071051297071088 -1 0 0
1752 1 34.42739029244143 22.362116080864563 0.9616310727591415 -1 0 0
1577 2 35.15889266630865 23.106062106105504 6.3899578476232 0 0 0
1578 1 34.76639723661814 23.95228885871897 5.7952520452902325 0 0 0
4710 1 33.14083129065781 25.984976648468127 4.496615112519333 0 0 0
2835 1 35.13265605629208 27.868351373286696 6.512117865438256 0 0 0
2834 3 35.33937732093093 28.133842805442267 5.631595282697535 0 0 0
4257 1 35.70872374432576 28.037962865836768 9.322927154594387 -1 0 0
2194 1 33.24852767838811 26.162833346340957 7.559391835672845 0 0 0
2192 2 33.65208840070949 26.638444243981315 8.494960271604663 0 0 0
2832 1 35.53928880267702 30.09560268837623 6.2560028196020285 0 0 0
2831 2 35.08986517842473 29.520224147024127 5.462881605596923 0 0 0
2829 1 34.76908937398746 30.47987556466006 3.546318206131018 0 0 0
2189 2 32.83766717117526 27.854012115328374 8.945920758883345 0 0 0
2188 1 31.80653143960195 27.735446795328155 8.689234043745996 0 0 0
2833 1 34.01325423344822 29.833356518982185 5.539998493061079 0 0 0
2828 2 35.60719257605042 30.061204591013198 4.135088856411183 0 0 0
3583 1 36.96107141464903 21.190132347561452 0.06740323428994921 -1 0 1
519 1 38.00754055363607 28.451316481962586 5.894893704865031 -1 0 0
1579 1 34.6262893107472 22.179585725570757 6.254263047894787 0 0 0
208 1 36.53391410536966 30.180011219750444 0.7030612330082001 -1 0 1
518 2 39.02405102580605 28.8253656433046 5.983608602958821 -1 0 0
1580 2 35.02885250796625 23.399019885103353 7.880544174440231 0 0 0
1581 1 34.01689490865508 23.838570541764554 8.110679636805184 0 0 0
521 3 39.324683222618575 29.678893206619332 4.807618627343377 -1 0 0
971 3 40.34482326474872 25.672072652672803 8.774645361740827 -1 0 0
1584 1 36.47866439190808 24.21190253952609 9.007826460064699 0 0 0
1583 3 35.91883536163476 24.42250618549224 8.240764935569148 0 0 0
2193 1 33.62306451232997 25.831882181332492 9.26956907512605 0 0 0
1749 1 32.047197493356 23.170140820978123 1.6960439819286914 -1 0 0
4254 1 37.562074241804524 29.395094937906162 8.74365741772516 -1 0 0
1576 1 36.17508831694986 22.760559335738606 6.110882661991777 0 0 0
1582 1 35.197538158109346 22.501658147393346 8.399529293931069 0 0 0
2214 1 31.48135761174661 21.17785073919246 9.418383269817959 0 0 0
4255 1 37.99902082045281 28.10705712375158 9.822060778018251 -1 0 0
4253 2 37.37766365617984 29.075164854632863 9.802054946861867 -1 0 0
211 1 38.07459111962373 29.603469804227355 0.2422358056245424 -1 0 1
2190 1 33.12714862918095 28.75747215617318 8.396035053372858 0 0 0
2191 1 32.83202959312794 27.94308814665106 10.061571477576017 0 0 0
2763 1 38.85053788405635 25.20271191719241 9.915528889551224 -1 0 0
2213 3 31.654713104510297 22.069366262250572 9.680510747342447 0 0 0
2887 1 30.932413669299827 30.1113083163106 4.927908344030699 0 0 0
2830 1 36.09680623187323 29.284233839779983 3.475582810958786 0 0 0
4256 3 35.98923721258861 28.76021088900518 9.998242532990696 -1 0 0
156 1 31.053599633789123 26.92304725217349 0.44749558613397683 0 0 1
155 2 30.841825354075915 25.876591746106378 0.6305762371486415 0 0 1
157 1 31.749499614855953 25.269890133867328 0.44459354451788996 0 0 1
1750 1 32.664236993848505 22.98251734845316 3.419299999940099 -1 0 0
1753 1 34.32557785600289 24.04127236581829 1.3621454940150022 -1 0 0
3588 1 38.88926824845128 22.883742803199585 0.22447403026218754 -1 0 1
3744 1 7.969238901516745 40.48139845028849 4.7384174355385085 0 -1 1
170 3 7.130964509450695 39.291955715746745 5.983331411843712 0 0 0
171 1 7.265390534471839 39.25800296106618 6.956521980570963 0 0 0
4183 1 9.27752264483361 40.58360645446452 7.800245786408299 0 -1 0
168 1 5.164960998440352 39.47167936391114 6.59836875103294 0 0 0
37 1 6.754643724719499 31.82667195108345 3.0544268264316674 0 0 0
38 2 6.337850550091861 31.264545699282504 3.8859753446407588 0 0 0
40 1 5.310305123509633 31.08609022092221 3.5134148436661263 0 0 0
3637 1 7.852239864435397 30.89118273356003 0.9599768243979548 1 0 1
3643 1 5.623589043767243 32.05581444246058 1.0526484525760458 1 0 1
1570 1 9.844974491670524 32.47978231007659 2.998647002857895 0 0 0
2477 2 2.106088157041439 31.574445964141674 4.163240189918456 0 0 0
2478 1 1.2902469374696015 32.03455845013216 4.676033011858575 1 0 0
5272 1 8.875882759787576 38.822677228454744 10.098278177902236 0 0 0
4707 1 8.219794363293268 40.10285975126823 2.65129033700393 0 0 0
167 2 5.753027353966469 38.92487408685905 5.8199986788276785 0 0 0
163 1 6.178345843783953 38.91235174312402 3.831936063392346 0 0 0
4924 1 2.8079715905422864 40.224943308087624 6.837548125892522 0 -1 1
169 1 5.675365909649091 37.837864043905135 6.08140154590759 0 0 0
5270 2 8.180051591175921 38.27136731780912 9.439657135766724 0 0 0
5268 1 8.383911573743482 37.38502043253651 7.462159348147258 0 0 0
5267 2 8.971052109982185 37.55847349606918 8.334028988030504 0 0 0
5266 1 9.80049646817224 38.20726426122495 8.059033891902935 0 0 0
5269 1 9.505096005867392 36.65993986018213 8.638484927214703 0 0 0
164 2 5.340709495491878 39.25338665953136 4.377481255191794 0 0 0
165 1 5.15239896672603 40.31904309700044 4.081852770469275 0 0 0
166 1 4.533228496986606 38.63668009733591 3.962558646902192 0 0 0
39 1 6.314118139109817 31.937428987683678 4.7104116169991626 0 0 0
4992 1 9.2447896619434 33.52748059190164 6.609678932844588 0 0 0
3522 1 4.2764208217618895 35.79751634495469 5.7982052010351115 0 -1 0
4989 1 9.262105164807513 32.58448163560831 9.449395234868863 0 0 0
260 3 3.698481348621257 33.243592184147154 8.372655639872812 0 -1 0
4482 1 4.102018767133698 32.212012756540865 9.58530692554713 1 0 0
261 1 4.405019904074423 33.49220385374203 7.718195798206085 0 -1 0
3527 3 5.921306835967997 33.96456213357546 6.706483392835086 0 -1 0
3528 1 6.719656580630891 33.380877323097394 6.813083248649556 0 -1 0
4994 3 7.916658979176568 32.02691804404734 7.145341251598879 0 0 0
4995 1 8.022451673021429 31.40181803615671 6.388200986641125 0 0 0
4991 2 9.14347682308518 32.786193462124736 7.375468974088478 0 0 0
3525 1 6.732957570043667 34.35378006314363 4.821920300069149 0 -1 0
4988 2 9.08679961127744 33.376236510463514 8.71774132378878 0 0 0
3524 2 6.174349389769894 34.89583341472023 5.640900546788436 0 -1 0
3521 2 4.8056435374592175 35.24237755425494 5.081708035490273 0 -1 0
3526 1 6.747187783011709 35.69840155783817 5.999159968385526 0 -1 0
3523 1 4.210913715873094 34.387649959179036 4.697767753977492 0 -1 0
3520 1 4.976507362954809 35.88547237615193 4.191308899895476 0 -1 0
2476 1 3.122640929822899 32.090986101075224 4.355772869089472 0 0 0
257 2 2.521118311278415 33.96329914257018 8.062039566743701 0 -1 0
259 1 2.8286860007799133 34.85353166404991 7.531826791812968 0 -1 0
4717 1 2.4292266334730828 33.89227945841557 1.2108287405207971 1 0 0
4721 2 2.689048157073081 35.9996790208496 0.7773710022278282 1 0 0
4718 2 3.120971332371279 34.70599137886813 1.453702161902485 1 0 0
4703 2 8.00953250529305 40.56840339837374 0.7214500043988236 0 0 0
2158 1 0.2612035261568648 37.98425070685709 8.379550144539618 0 -1 0
4724 3 1.2445504346832557 36.41561963711871 0.8413964265617295 1 0 0
3639 1 8.097547396171683 32.34228907531271 0.006369008319682741 1 0 1
3638 2 7.51438223824261 31.4104253160797 0.06802897400440855 1 0 1
2479 1 1.7885805037310785 31.609710398191627 3.1270441310784016 0 0 0
4706 3 8.346572482803161 39.63688909897624 1.729347998991163 0 0 0
254 2 1.6978945334643112 34.260558620000396 9.31560413339287 0 -1 0
258 1 2.002460010056225 33.34544595704572 7.356708475337607 0 -1 0
1682 3 0.6311252878009279 36.271402771243956 3.4867702630154556 1 -1 0
4725 1 0.9693092310707639 36.43671867063121 1.791327945591526 1 0 0
4990 1 8.046271146929712 33.85514655616319 9.037435854709722 0 0 0
285 1 5.251598518234839 37.48893762439365 8.934349190299734 0 -1 0
283 1 3.1748718795523803 36.55820714038509 8.3755482758619 0 0 0
1053 1 9.971270430513277 38.49459429765801 1.823348922446088 0 0 1
1679 2 0.8101770685950552 37.12593776825203 4.575142646293799 1 -1 0
256 1 2.173719421511494 34.74859042389805 10.188651704148091 0 -1 0
282 1 3.2636184863352584 36.584181876461635 10.130630774760833 0 -1 0
281 2 3.159078444568071 37.23676317266196 9.22044682566345 0 0 0
284 2 4.355119641068597 38.1074655400847 9.035361140731437 0 -1 0
946 1 6.945375800934403 34.807400785086834 1.0721438957918128 1 0 0
4722 1 3.2690311854305936 36.78873041004327 1.2756857866231273 1 0 0
947 2 7.070864949292275 35.8547678907473 0.5954479240049204 1 0 0
949 1 8.084032204101378 36.0998254739904 0.308015227058085 1 0 0
948 1 6.80025520833317 36.49410020331443 1.3641540288629068 1 0 0
1050 1 9.043390719594917 37.40124301057005 4.04039211785086 0 0 1
1052 3 10.18813108987929 37.683574227490055 2.2573174664725886 0 0 1
253 1 1.3489522400121856 33.296557941406796 9.641617700491103 0 -1 0
255 1 0.8690115903928388 34.993524827319 9.105447488055043 0 -1 0
1675 1 2.9521386956597557 37.31263917347392 4.263204466919132 1 -1 0
1678 1 2.1103957383359258 38.35730717366385 3.3365213354802634 1 -1 0
1677 1 2.2917841028560986 38.66820211167946 5.124845272398632 1 -1 0
1676 2 2.073883391988854 37.961054559048925 4.317231154792024 1 -1 0
4987 1 9.780996474527782 34.20251436467574 8.803764641513512 0 0 0
1049 2 10.017324444753882 37.76215082215978 3.6969209373635175 0 0 1
1680 1 0.9912648831077152 36.49275729443756 5.48805097880805 1 -1 0
5274 1 6.566634937436652 39.303273998283665 9.22613996493554 0 0 0
5273 3 7.390794125179105 39.21450409318737 8.785808297038955 0 0 0
4993 1 9.970936574166437 32.070371137071504 7.359817783920141 0 0 0
286 1 4.335048000662862 38.87353512801529 8.253996574930289 0 -1 0
5271 1 7.54622264293129 37.65688247680267 10.08559846506322 0 0 0
280 1 2.216804386938492 37.823151612551065 9.229000061752279 0 0 0
4719 1 3.073344813993304 34.76922797089823 2.5564977579475303 1 0 0
4720 1 4.18280429590671 34.43165078332081 1.139954718111137 1 0 0
1569 1 10.014908199130728 31.962487621857107 4.525241050329861 0 0 0
121 1 0.4644038367417886 38.97048475185293 0.7688411725461642 1 -1 0
1683 1 0.09610547957618339 35.452246788646676 3.6156485393652775 1 -1 0
4944 1 2.885697963718568 40.41291340129071 0.2869059551463858 0 0 1
3641 2 5.985582421076456 31.446430031123317 0.2090118874882374 1 0 1
2150 3 14.474899704453842 40.672010478783925 9.863658407786046 0 -1 0
6132 1 18.13616225566858 30.716329204627392 4.506942793021216 0 0 1
6133 1 18.814700453454172 31.63111639300759 5.9505395189549795 0 0 1
768 1 14.29716818323086 30.677841948147403 6.6009950425194 0 0 0
2517 1 17.825612875263 30.93000907029464 7.886415183463783 0 0 0
4180 1 10.347329856654033 40.72752468842319 5.269792185733525 0 -1 0
1047 1 11.676130485318174 37.42303242704266 5.058922023365374 0 0 1
2700 1 10.632180239285518 36.02064586063882 1.4322627348721935 1 0 0
1051 1 10.34083249333807 38.68733019046304 4.001096643265288 0 0 1
4352 2 13.817652043615784 39.749020821047075 2.9673159942974285 0 -1 1
4355 3 14.648296632343957 40.52027087855754 2.177841191154378 0 -1 1
3785 2 17.99068267966921 40.31523158571631 3.2326092997506235 0 -1 1
3782 2 19.45362221889793 40.45884618816999 2.9640403539533158 0 -1 1
4354 1 13.103896229495486 40.34109648366901 3.511452614704034 0 -1 1
1568 2 10.598035851584928 32.19235196099562 3.648823090205287 0 0 0
771 1 12.408361135895035 30.822083899257414 8.185464586253854 0 0 0
1045 1 10.689142039153944 36.00940999351047 4.7863501888075985 0 0 1
1573 1 12.29658305563245 30.790594594092436 3.7925839905057677 0 0 0
4177 1 11.565422207336907 40.052350731221395 6.484964599383254 0 -1 0
4349 2 14.588523692564905 39.13736655682079 4.093113416129751 0 -1 1
4350 1 15.259026636880998 38.322133059747905 3.764548828636136 0 -1 1
2148 1 12.701879353583893 39.68091996537621 9.77382646573382 0 -1 0
4348 1 15.135387475786859 40.00004638437944 4.610129892531336 0 -1 1
1048 1 11.816612235618091 36.4971770363586 3.5924994889589694 0 0 1
3787 1 17.908199953039436 40.10887872185153 4.367691833617298 0 -1 1
3781 1 19.873755334954822 39.44270524506518 2.856882014797343 0 -1 1
1572 1 11.47529636187411 30.791352995773785 2.1864603055062335 0 0 0
3786 1 17.548505542493967 39.50833654048225 2.6259899466333296 0 -1 1
1571 2 11.328303411353197 30.912190200076793 3.2911711998830775 0 0 0
1046 2 11.152210639903442 36.884064252681355 4.313912962156741 0 0 1
604 1 19.256245753930912 39.221442652905836 9.890620085977504 0 -1 0
1567 1 11.307939874876672 32.95488970789612 3.957281851965103 0 0 0
5041 1 16.227072704536585 36.66358872354504 5.542214297379525 0 0 0
5044 1 17.265532057129064 37.42962656312245 4.356790187065064 0 0 0
5042 2 17.253473576607583 37.00037459177033 5.432357875274849 0 0 0
4351 1 13.778011499314122 38.78794939771175 4.754023804224101 0 -1 1
5046 1 18.54901260293361 38.601778672696305 6.002865888318203 0 0 0
6131 2 18.24634056452072 31.721602380660592 4.913748972477584 0 0 1
6130 1 18.864693528211475 32.36076462951536 4.260001357299513 0 0 1
6135 1 16.273716479706998 32.27816536881991 4.311395788509062 0 0 1
6134 2 16.965273597280724 32.44861473831944 5.164261638390256 0 0 1
6137 3 17.305412418451464 33.746177250397785 5.389562728298712 0 0 1
6138 1 16.55124217752308 34.234559873557565 5.763763652315187 0 0 1
2327 2 13.798045219752996 34.42422991096802 7.251058642089247 0 0 0
2330 3 15.122567148738858 34.746307763636615 7.178249987183166 0 0 0
6136 1 16.35805878937487 31.971153246464823 5.974905820449677 0 0 1
842 2 16.04219181243623 34.34538132759964 1.2062241501783686 0 0 1
5043 1 17.993382853002924 36.203468748345486 5.515062968079221 0 0 0
5048 3 17.934662060419733 37.85464810761152 7.792091642473321 0 0 0
5045 2 17.657471610771896 38.14028361213554 6.375221374573755 0 0 0
2697 1 11.537438290302017 34.14761267641815 2.42209355812982 1 0 0
5047 1 16.917729277686437 38.9209686912707 6.32123323704281 0 0 0
5049 1 18.879506822519087 37.7154631907302 7.87298756520742 0 0 0
2698 1 12.759044984500854 34.97410526351028 1.4146906232610212 1 0 0
2328 1 13.252978321859374 35.33098579673299 7.521200313296533 0 0 0
2331 1 15.617100711301635 34.70050244105555 7.971756884804402 0 0 0
2696 2 11.80577470149503 34.44998584011497 1.3674747690117757 1 0 0
2326 1 12.114530355583984 34.10539559952093 5.697938932671406 0 0 0
2324 2 13.213998981883776 34.09499639660005 5.820279450569137 0 0 0
2323 1 13.624021767489678 33.08721180570624 5.645943503331493 0 0 0
2325 1 13.587484304499782 34.73938628823008 5.028462443834986 0 0 0
2329 1 13.588548802229559 33.60857578860938 8.039034046503565 0 0 0
4761 1 17.055745261072484 36.296333597587 8.781903166699745 0 0 0
2699 3 10.742674317237311 35.27258873699116 0.8518916886056026 1 0 0
4760 3 16.538222518114818 35.69642800445955 9.314636316502362 0 0 0
841 1 15.383409182799683 34.30174434022256 3.34272206538994 0 0 1
843 1 16.52586711155226 33.343524509576696 1.371946970190841 0 0 1
839 2 15.80048985371471 34.9433214447193 2.5563978419802305 0 0 1
838 1 15.149173382579825 35.82423660803692 2.4616893811162734 0 0 1
840 1 16.816148654773734 35.237305280704845 2.969461043813555 0 0 1
2694 1 12.664388814627355 32.55783191853264 0.9389757798087258 1 0 0
2693 2 11.97913858537717 33.26994864666353 0.40564089018072064 1 0 0
5454 1 18.19202676472333 36.02025660511635 0.5840162312841498 0 -1 0
845 3 16.918795923905122 35.232154230249066 0.44599870175513506 0 0 1
2692 1 11.021479860186814 32.75101913952825 0.26983372991907656 1 0 1
5453 3 19.120106432844203 36.41044242749467 0.35653668381146436 0 -1 0
844 1 15.09614744578944 34.299828137256796 0.6907294376424122 0 0 1
5682 1 20.367904215516237 37.5562231210035 2.9815821996969385 0 0 1
5451 1 18.425422031221064 38.28237117147257 1.1237501924276174 0 -1 0
5450 2 18.83317515550009 37.829442069245474 0.13220190243411706 0 -1 0
3256 1 19.731564959401698 34.63050064215073 8.525439581307628 0 0 0
2515 1 18.297007520838616 32.22332969489507 9.966776243819515 0 0 0
2513 2 17.62684461555009 31.42237268406496 9.95619648053098 0 0 0
2514 1 16.666530235404856 31.796466291312484 9.757325549256745 0 0 0
3172 1 12.029725502245581 36.022710091664 9.790302241482019 0 0 0
4353 1 13.241002523070248 39.03606271868346 2.350344461718198 0 -1 1
1855 1 20.24245414101778 32.23054519723689 0.22321314384889632 0 0 0
5721 1 23.693556600840658 40.710118858282684 3.5050956001197457 0 -1 0
1002 1 25.914053940721725 40.72511852124219 2.9020149864168534 0 -1 0
1001 2 26.16511842813856 40.22376904973386 1.9921989611078341 0 -1 0
1000 1 25.400290287259278 39.457538818629615 1.8677353283490894 0 -1 0
3157 1 23.895737910244776 30.675787780487045 9.20873994016829 0 0 0
2555 3 21.518758706838092 30.675203056999827 4.98909286657819 0 0 0
2551 1 22.62052925931705 31.250598010644364 2.3112952322965694 0 0 0
2550 1 20.839076996328657 31.514717061277665 2.6679121778646535 0 0 0
3252 1 20.69789785573786 32.57433056794746 7.708817354863087 0 0 0
3254 2 20.743407709829683 34.499898842392795 8.635135965879867 0 0 0
3255 1 21.128840149785898 35.08957745136077 7.830831790022591 0 0 0
1813 1 22.31793442312339 40.20188118217055 7.588760297923536 0 0 0
1003 1 27.068416754069396 39.62247517073622 2.061636015396466 0 -1 0
3156 1 22.226692148197916 30.90154584328408 8.627424082683014 0 0 0
2554 1 21.71244975711842 32.67001273253862 5.004120612392824 0 0 0
2549 2 21.891532618082046 31.87399199186083 2.9065590605906904 0 0 0
2548 1 22.094152932697114 32.83900636814159 2.4280332574856796 0 0 0
3250 1 22.279177274111234 33.13238952175594 8.23188474983235 0 0 0
3251 2 21.20668869458835 33.10001459554446 8.481665365683451 0 0 0
3253 1 21.213785757185793 32.53099535445881 9.338130147414054 0 0 0
1810 1 20.667689550979013 40.14934178836576 8.145620794099518 0 0 0
3996 1 24.541539373642546 40.06226676925271 5.805938381421638 0 -1 0
1817 3 20.545066550782135 37.652065425041165 8.518239037843113 0 0 0
1816 1 22.480668507502553 38.3375267686807 8.897740750999953 0 0 0
4438 1 26.21087230721338 31.28248156828955 2.1908554240706057 0 0 1
2552 2 22.152130688940723 31.848133914847605 4.430778162511335 0 0 0
3257 3 21.04773066690064 35.121149224695614 9.910713166661296 0 0 0
1818 1 20.845374699825282 36.84124507573794 8.962105881404145 0 0 0
4440 1 24.91772702529963 30.886790751361293 3.4072033498947114 0 0 1
2553 1 23.187409498729313 31.90820778138477 4.619439856950732 0 0 0
2889 1 29.695037341463696 32.259521348979064 5.1543865092380505 0 0 0
1812 1 21.044809684763862 39.62604912228012 6.457258399361245 0 0 0
5364 1 27.531545567560453 31.50210020973023 5.640402433268589 0 0 0
3991 1 25.4577974624097 36.849185642191735 5.108929147629023 0 0 0
1814 2 21.726461108512368 38.326312965046526 8.094062161023958 0 0 0
3995 3 24.527250473463265 39.04479176037243 6.022884756513159 0 0 0
3993 1 24.07338156113699 38.71289886123167 3.9813236025939656 0 0 0
5358 1 28.818200199075307 34.52517027534615 4.625601830652137 0 0 0
5359 1 27.855677525725238 34.8281064806597 5.934427899965561 0 0 0
5363 3 27.891868837389136 32.394940661074074 5.676740557964222 0 0 0
5357 2 27.851364167124398 34.568307461125684 4.914285539985792 0 0 0
3990 1 23.901923689247674 36.29111527243545 5.7439109067687975 0 0 0
5360 2 27.18838171826965 33.245786435692224 4.716572731259367 0 0 0
5362 1 27.239807515217354 32.81918184872367 3.7214389382920077 0 0 0
5356 1 27.307902657892562 35.42508779258456 4.42173081137058 0 0 0
3994 1 22.81910222754778 38.41759677126057 5.081915386199032 0 0 0
4906 1 25.716579788287213 34.85175070564123 0.20566795524421633 0 0 0
3992 2 23.904913974347437 38.319770093762344 4.972567457431534 0 0 0
5361 1 26.164159518852074 33.19016365154497 5.033497447959976 0 0 0
3988 1 24.039921007068763 36.50091673374486 3.9719735705677213 0 0 0
3989 2 24.332024674839598 36.89143718563483 4.941038817936198 0 0 0
3730 1 24.582008354421 33.42066638916523 6.831676631834756 0 0 0
5680 1 20.791382278809248 37.169175178704485 4.511433375966023 0 0 1
5681 2 21.169834201840363 37.098379660621106 3.5258669421841597 0 0 1
5683 1 22.113322774067957 37.65649836172776 3.441635338492172 0 0 1
5686 1 20.56005705286034 35.06596210113856 3.6720423318866398 0 0 1
5685 1 22.26599189903464 35.21004063097597 3.326957332117526 0 0 1
5684 2 21.34291569051567 35.62423198823624 3.0947065277258607 0 0 1
5688 1 20.42434183401859 35.592221292639266 1.2566947664666817 0 0 0
5687 3 21.27136599621637 35.37755986975674 1.7228040521411736 0 0 0
3729 1 24.146196389063352 34.11028275045714 8.40752732764364 0 0 0
3728 2 25.005331388520172 33.886168396877615 7.724164530014998 0 0 0
3731 2 26.06835695900651 33.09109229802473 8.425737354433014 0 0 0
3727 1 25.54219228595111 34.810855255173934 7.398961490748256 0 0 0
3735 1 27.391277077994438 34.0074121632841 9.598615578748392 0 0 0
1811 2 21.40873457726144 39.64591711594443 7.5000923678809075 0 0 0
1815 1 22.331567771878152 37.73531178961284 7.357948288719381 0 0 0
3732 1 25.70541594130379 32.12018901694513 8.745967146246945 0 0 0
3733 1 26.965814356864414 33.028288295841456 7.818772309078148 0 0 0
3734 3 26.43649040679475 33.751498392297115 9.631619499133416 0 0 0
2433 1 28.803932775333838 38.35463823258108 2.0685732198871425 0 0 0
6115 1 28.49488134798654 38.005399324634844 7.552491019850603 0 0 0
6113 2 27.423671609102556 37.78040584887624 7.568124359254965 0 0 0
6114 1 27.1959410446568 36.91314783620285 7.080631645717248 0 0 0
6116 2 26.935064976718838 37.63585281270897 8.966438844327348 0 0 0
440 3 29.187519264821773 34.134422911124794 9.9883370385534 0 0 0
441 1 29.67183105040731 34.8906706072486 9.660620697167479 0 0 0
6112 1 26.853381547778316 38.53236024111289 6.9950849031912385 0 0 0
630 1 27.320786428829827 40.626765297890955 8.957174917615573 0 -1 0
2431 1 30.095174172505644 37.846816234158744 0.8772682864224893 0 0 0
2650 1 27.77128612736214 40.04529726487643 5.205710612379551 0 0 1
2432 2 29.22793941215336 37.53574999085472 1.5140895327916004 0 0 0
2652 1 29.29393243475632 38.1889169410189 5.427322829376293 0 0 1
2437 1 28.903269843453213 36.13495116269974 3.1084578866806853 0 0 0
6118 1 27.27226880332669 36.71498118592416 9.409145399670237 0 0 0
6119 3 27.469653768187758 38.77083514089719 9.651338396684736 0 0 0
4833 1 22.8254277252309 35.786624110886855 0.7100613776828204 0 -1 0
2435 2 29.70515869510216 36.4054193571136 2.4575080171092543 0 0 0
6117 1 25.84385789780464 37.46186053010695 9.135019596091851 0 0 0
4830 1 23.250190995206626 37.803598787705845 0.31556975785157737 0 -1 1
2436 1 30.57722532234315 36.825194062417765 2.999910346672024 0 0 0
2434 1 28.41467070326485 37.27039022881846 0.823664772835758 0 0 0
2884 1 29.25045421615945 30.99149238158074 6.92803509564577 0 0 0
2438 3 30.19326475523545 35.356748628973534 1.653892201242843 0 0 0
435 1 29.06992062310774 31.678312233333127 9.834082304530387 0 0 0
4909 1 25.467021640086802 33.0355754296514 0.3881879967849762 0 0 0
2649 1 28.798546003785773 40.55805219597489 6.581225193065265 0 0 1
2648 2 28.82050115333909 40.32397708284352 5.517379474097146 0 0 1
2651 2 29.641644605431797 39.17259845477382 5.138611744563547 0 0 1
2882 2 30.32761748975805 30.76916912139833 6.919593999781864 0 0 0
2653 1 29.704792946727807 39.29930100149585 4.091878415084206 0 0 1
1646 3 30.505938603025236 35.85395917264647 8.309660642477786 0 0 0
4832 3 23.730075307569486 35.82587539317567 0.3330498216687082 0 -1 0
4828 1 25.67834992461252 37.75353397919014 0.34949145964216904 0 -1 0
3893 2 36.92584755161422 40.78323296984376 1.3422355901286143 0 0 0
4767 1 34.14497180368196 40.66374565840125 6.046026442949155 0 0 0
4769 3 33.58534276897836 40.28870672074128 4.087314266534732 0 0 0
4777 1 32.182173048627305 40.12728885648081 8.467139739904901 0 0 1
4770 1 34.40073245805231 39.64970230200222 4.113195809717777 0 0 0
5600 2 33.205241515074846 40.58660595350763 0.7184340461223698 0 -1 0
2827 1 36.50063678980373 30.705377545070004 4.325533620290156 0 0 0
2157 1 39.427206097780164 37.79758937842217 9.019649779878788 -1 -1 0
2160 1 40.29819307205528 40.17256655839422 9.693354575172611 -1 -1 0
2159 3 40.480773959036576 39.25220852954653 9.880410249142031 -1 -1 0
2156 2 40.10946410520587 38.53865925000553 8.68274034887428 -1 -1 0
1735 1 30.78873794408414 31.929969467423366 1.2892810746743344 0 0 1
1734 1 32.31958242594085 32.71095217768861 0.7062325140765343 0 0 1
2439 1 30.720546189313623 34.71304595645334 2.1638132219688804 0 0 0
3896 3 37.57623458675932 40.55555056099865 2.5503200003051343 0 0 0
3894 1 36.38632380490388 39.83289591333021 1.1612662384171202 0 0 0
4773 1 34.1619502483497 38.74766019272196 9.403138657219747 0 0 1
118 1 39.83215218491285 39.58523169024277 1.6895113437519833 0 -1 0
1731 1 33.78549421663783 31.48436733496524 2.2689205411661835 0 0 1
1729 1 32.41555548676734 30.666093708024974 2.947309404716999 0 0 1
1730 2 32.737303901345655 31.154328006887315 2.0489408406085463 0 0 1
2886 1 32.19035551917241 30.96754483665458 5.784187955592031 0 0 0
2885 2 31.086566174373278 30.954773167294903 5.628630731660256 0 0 0
2899 1 40.456735410581246 32.670622511194075 8.27813067606913 -1 -1 0
2631 1 35.56057457098687 31.974704407723376 10.053477217186582 0 0 0
2888 3 30.63984186371223 32.20156693023075 4.9330926862520865 0 0 0
1521 1 36.47103982185542 39.46347614735797 3.8627265500193944 -1 0 1
2881 1 30.8807778177387 31.287117425202894 7.69627080498398 0 0 0
1737 1 31.27403769540935 32.74941966752361 3.393389950212912 0 0 1
1681 1 40.7717640544339 37.857072906274695 4.769442866050517 0 -1 0
123 1 39.305424065158604 37.23538054086124 1.581142610334993 0 -1 0
2654 3 31.024943438039735 39.16285943060001 5.627144739065342 0 0 1
1733 2 31.823371534519094 32.26754486712358 1.6426882918593493 0 0 1
1736 3 31.639032426593676 33.212400378849765 2.6627792667889776 0 0 1
4778 3 31.612112508089158 38.23217308083204 8.171245053268459 0 0 1
4779 1 31.52886550963505 38.56722237899607 7.210023218238319 0 0 1
5278 1 35.2616260585716 32.57921667060445 6.468886438042623 0 0 0
1520 3 35.86787379138036 38.71228127407319 4.076605020040843 -1 0 1
1518 1 35.25071465657211 38.042158405117995 5.939978034727202 -1 0 1
1647 1 30.778694832731887 36.77495379613293 8.272484865549805 0 0 0
1644 1 31.545329673037504 35.58738990533258 6.535484576300608 0 0 0
2655 1 31.549012342447124 39.628292430896984 4.95539901102451 0 0 1
5281 1 34.75954621320646 32.60275262096568 4.1966948923666045 0 0 0
2154 1 39.92409165496583 40.26481947770814 7.2877548854396 -1 -1 0
2153 2 39.424269914410786 39.359108040466744 7.657866839597597 -1 -1 0
2155 1 38.463207585621 39.65205965155278 8.09825231357957 -1 -1 0
1643 2 31.572380732112695 35.197382591556966 7.509389428378565 0 0 0
1645 1 31.16027168916334 34.15268856825763 7.526036366496915 0 0 0
1513 1 36.37498627058781 36.24336574340465 5.156568940340383 -1 0 1
1641 1 32.709851984166654 34.703939968098894 9.10017144029504 0 0 0
1642 1 33.21309600739393 36.33800151434639 8.410184190100813 0 0 0
5283 1 32.996712338558865 33.78362484066742 4.289315771266863 0 0 0
1639 1 33.606033927159956 34.753447131366705 7.632005721083983 0 0 0
1640 2 32.85150404089137 35.3028420548247 8.20207913982608 0 0 0
5275 1 35.41079160158776 34.28660692775027 6.573571237549224 0 0 0
5282 3 33.59349066416312 34.211697487012344 4.905257263646027 0 0 0
5276 2 35.678700880425566 33.42639204019262 5.869086552398551 0 0 0
1514 2 37.025776072166245 37.026735501709936 5.530144025815382 -1 0 1
1101 1 32.959532688301266 37.30980764927168 2.754099433204301 0 0 0
1517 2 36.1662190142656 38.24779769039192 5.438689034826182 -1 0 1
2905 1 38.290241273923606 33.3541758291719 7.198004632251307 -1 -1 0
2902 1 38.95972528867187 32.30500292344959 9.140048005633787 -1 -1 0
4775 2 32.048570860871756 39.311533017155234 9.111559651153904 0 0 1
2900 2 39.52969650299315 32.0474265192505 8.265683832251057 -1 -1 0
2903 2 38.6434999986805 32.32269516840903 7.056835364181521 -1 -1 0
2907 1 39.46262544354037 31.33627332127889 5.507347184196721 0 -1 0
2901 1 39.90151836381195 31.049510827237594 8.26868118657732 -1 -1 0
2906 3 39.441482230399075 32.26460976407264 5.8619095114812545 0 -1 0
2904 1 37.80049503917157 31.62040102913756 6.934502641370277 -1 -1 0
1519 1 36.47692196664444 39.090539843350946 6.0560380910993405 -1 0 1
4500 1 39.7309268360205 33.510069132785155 4.362638935274853 -1 0 0
4499 3 39.91832725311034 34.179066748996206 3.684028442408676 -1 0 0
4497 1 40.07250926357088 33.448902814072525 1.7747418137567876 -1 0 0
1515 1 37.24973414487189 36.81544149167806 6.608062344316888 -1 0 1
4498 1 38.828295557702575 34.669489615947015 2.044206978913494 -1 0 0
4496 2 39.28728490045192 33.80015370294807 2.4135968976675177 -1 0 0
1516 1 37.965939055343846 37.05765819325081 4.913680241598387 -1 0 1
4493 2 38.225028484506886 32.75190801395021 2.6962547400252763 -1 0 0
2152 1 39.2695962149329 38.74011805672785 6.8172971487932195 -1 -1 0
4772 2 33.26186417459286 39.028387716618674 9.940820005710961 0 0 1
2629 1 34.74359286195719 33.201307054654315 9.423495205668132 0 0 0
5279 2 34.85344795664501 33.66197652511945 4.654771165076105 0 0 0
5277 1 36.743452724810766 33.362721994426586 5.650736109526987 0 0 0
5280 1 35.319101000051965 34.35855103025901 4.034389294779355 0 0 0
4494 1 37.45119896438391 33.12824266064679 3.2501461348255574 -1 0 0
119 2 40.15031803533358 39.04717423769617 0.7231201088364345 0 -1 0
4495 1 38.60356373963449 31.95940721986358 3.3130129392001773 -1 0 0
122 2 39.317648513671344 37.717007041709515 0.5993095404278165 0 -1 0
124 1 38.34197800453033 38.037158623241204 0.28264592942425115 0 -1 0
4539 1 35.98184475364521 40.45520677405761 9.555464104279315 -1 -1 0
1099 1 33.00430672949631 35.6856120798711 2.492506525704464 0 0 0
1102 1 34.165217565842816 36.38192704039776 3.612930726578969 0 0 0
1100 2 33.69445900084244 36.497174607574955 2.67764120225462 0 0 0
4492 1 37.93795729422866 32.348450335019606 1.7538564750092744 -1 0 0
5599 1 33.92321939885683 39.86885903205413 1.090554170765179 0 -1 0
4776 1 31.186908515110098 39.569194031066836 9.796120139298383 0 0 1
5606 3 30.802442272523646 40.78256960015415 0.11924361404206915 0 -1 0
1104 1 35.48259760913431 37.43364808075606 1.6534811854611526 0 0 0
1103 2 34.63074627238848 36.7303046888498 1.485176101580753 0 0 0
1105 1 35.11147501419428 35.829954610405615 1.1526253899498213 0 0 0
5604 1 31.760361737284843 39.09237196394761 0.29697336037244504 0 -1 0
5605 1 31.550618540840393 39.8893847504943 1.8382787222310588 0 -1 0
5603 2 31.805530693457868 40.044597403502436 0.7898682622123433 0 -1 0
1106 3 33.91997645377978 37.28915597516137 0.3765807050189058 0 0 0
1107 1 33.218252515725645 36.68973553669125 0.1441379346314433 0 0 0
3352 1 1.100220409200943 2.085404159273114 12.287540957586428 0 0 0
3349 1 1.2081272021138385 3.20203398350309 10.966581550697956 0 0 0
3350 2 0.9901210485997984 2.1412584333636455 11.207998631531755 0 0 0
3351 1 1.8063507939055763 1.579163704998794 10.620577707293942 0 0 0
3685 1 5.273557962274669 8.19293446808983 10.669555525191116 0 1 0
217 1 4.554410093240405 1.959043032692397 10.578568414412143 1 0 0
3689 3 7.359576195470749 6.696503805984695 10.310437337842371 0 1 0
3682 1 4.866041189658344 6.7915738826467065 11.68869132093236 0 1 0
430 1 7.761270609088031 6.213333920603039 13.467052642869403 0 0 0
424 1 7.250219990196116 3.899061800651759 14.375611466049294 0 0 0
3683 2 4.973247946330208 7.151422654410429 10.649344342423337 0 1 0
429 1 7.774041366985502 5.094790376120906 12.11459887745025 0 0 0
5737 1 3.323065186627415 7.285555323267957 13.431331885488515 0 0 0
5735 2 2.512054267244188 6.547793189731931 13.39292980834432 0 0 0
5736 1 2.8771853584078344 5.496524353678992 13.469765993880172 0 0 0
5734 1 1.9863013164581265 6.691494892254709 12.403703475448792 0 0 0
426 1 8.822305718828932 4.371830380115974 15.002482831307875 0 0 0
425 2 8.279097125579405 4.256233703721153 14.118450086904717 0 0 0
427 1 8.698543521388387 3.4045915496319004 13.636283424928186 0 0 0
428 2 8.294069407851595 5.383034366877854 13.056479906703755 0 0 0
5741 3 2.138504372279069 7.754805269744782 15.415603923781832 0 0 0
4905 1 3.8570489990677976 7.432667201460075 16.47975399115422 0 0 0
4904 3 4.731416175905538 7.1269388073504745 16.69222163964205 0 0 0
4901 2 5.5938665694957574 8.209995956778686 16.511930847558535 0 0 0
4903 1 5.329058987377291 8.721064219962964 15.575299491981214 0 0 0
4898 2 7.0559013835293545 7.817113367021446 16.604526248711007 0 0 0
4982 2 2.5168176110421308 1.6774565067699394 15.852459093572119 1 1 0
4985 3 2.583391684259022 1.400701700590666 17.241939388168262 1 1 0
4410 1 4.0675585173169875 1.431416138378982 18.227696060074607 1 1 0
4409 3 4.64853180787559 1.0622808358411078 18.912670646438116 1 1 0
4406 2 5.900178407662191 0.5764123455874184 18.32970064037374 1 1 0
4403 2 6.248148950700933 1.1309368417812247 16.965648748403332 1 1 0
4408 1 6.705123532806517 0.6851395485574227 19.062212675963437 1 1 0
4981 1 1.9352325656305125 3.805352601341387 15.660352111170772 1 1 0
4969 1 3.8559874992639567 5.524645480693916 20.230654540064926 0 1 0
4902 1 5.345783083556634 8.912240523595525 17.411013192848177 0 0 0
4900 1 7.424623697109548 7.564970041971331 15.667334104229754 0 0 0
4897 1 7.1999933255496025 7.015428343468939 17.31371623869181 0 0 0
4899 1 7.522205210840395 8.718678811807195 17.022124851782294 0 0 0
4979 2 2.7525799129051545 3.1335889490140416 15.496982495543875 1 1 0
4978 1 2.885829281713083 3.0364462800003436 14.422784476823455 1 1 0
4973 2 1.672773059341353 5.797253425646686 19.972201226631064 0 1 0
4980 1 3.6783808411377605 3.47270826471616 15.984991562787839 1 1 0
4974 1 1.6465727752150126 6.869243012069361 20.209436654122168 0 1 0
4976 3 0.46150675586096196 5.193606148269635 20.386079873599527 0 1 0
4405 1 5.513350547482123 0.9137759131508385 16.209835168628295 1 1 0
4404 1 6.484545848986497 2.1961051704883365 16.955227849885183 1 1 0
4402 1 7.063282648604157 0.6743466706388088 16.46180872894432 1 1 0
4971 1 2.9265513844455495 4.060634559261125 20.304978459891135 0 1 0
3138 1 8.001159669182938 2.6144205191358694 18.943414584768604 0 1 0
431 3 9.590683648967188 5.7421423733954 12.771074406866786 0 0 0
5739 1 0.6116048389751358 6.969744232717986 14.255472610142656 0 0 0
5738 2 1.6073150164541439 6.716326488421048 14.580598086348369 0 0 0
5463 1 3.8162862816555068 0.29281714208921455 19.86850035516749 1 1 0
3136 1 8.256904602761951 4.47959595826386 17.32845926324162 0 1 0
3135 1 9.057281104050666 4.85611793579003 18.821303170694964 0 1 0
3137 2 8.951658557885906 2.790806483567176 18.44236246960267 0 1 0
3139 1 8.872904985853145 2.060851137934245 17.61329593656587 0 1 0
5742 1 1.4218786609487644 8.285603210326324 15.851138243341882 0 0 0
4031 3 6.941304806582895 9.239380370210691 20.112892993378303 0 0 0
4984 1 3.2862548598781163 1.1351701486873484 15.269876439663763 1 1 0
6275 2 3.220949996489116 9.142502097270697 19.446294462106692 1 0 0
3134 2 9.131956960581595 4.163099188264645 17.9677752054011 0 1 0
888 1 10.08415795849382 6.758299464531941 10.888290791551483 0 0 0
5740 1 1.546941780252373 5.741795174610562 15.14287306469503 0 0 0
4983 1 1.5535193349896022 1.2333211280195928 15.341707135425949 1 1 0
4986 1 2.4679527897016027 0.4133661102372901 17.28798168259675 1 1 0
6277 1 2.8600851161616716 8.169940623974844 19.091180399957988 1 0 0
6276 1 4.040037871503909 9.508591049264986 18.81614552659455 1 0 0
432 1 9.93828654829925 6.629296519447135 13.062652511242314 0 0 0
3140 3 9.957020409896236 2.312180597814263 19.390992578873718 0 1 0
6055 1 10.18924207249975 2.376937686252604 12.815012537057784 0 1 0
3133 1 10.069065267978493 4.354202027103408 17.447049331971417 0 1 0
4975 1 1.6127216598232996 5.791848410837879 18.838905843382282 0 1 0
2622 1 0.13462559730508034 4.161224325484022 13.414434299902082 1 0 0
6207 1 0.2040444136540164 8.229225639016162 18.547586668007753 0 0 0
5242 1 0.28240010322188874 6.22822057361879 11.137805641254404 1 0 0
2527 1 6.860415965382865 10.078682519019166 14.094925787989053 1 0 0
4032 1 6.343816631978471 9.968050580517426 20.28332606646085 0 0 0
3754 1 2.3790151520004397 9.63309818746794 13.523205043501976 0 0 0
3757 1 1.1584772508122827 9.99955623740932 12.196857008302144 0 0 0
886 1 9.914467770091035 9.822518753276018 10.751913780014233 0 0 0
884 2 9.690235431605696 8.856095924726768 10.303295418723957 0 0 0
883 1 8.600843674036875 8.645257018513941 10.472607555631733 0 0 0
612 1 16.426046961997724 0.4730768530777388 10.359490921479646 0 0 0
608 2 18.4511549370334 0.4796188547946124 10.283391956733253 0 0 0
609 1 19.19238311729098 0.9871639392099797 10.901033263028845 0 0 0
3013 1 11.009903697219888 8.278140829950635 15.214068041103786 0 1 0
5296 1 19.284375321718134 6.096526078982494 10.270155989310094 0 1 0
6054 1 10.774149843568129 2.1489126866312542 11.273415601457344 0 1 0
611 3 17.167776215076703 0.9805896972635793 10.796862515313448 0 0 0
6049 1 12.853503693118908 2.574725903555562 13.392131994596932 0 1 0
6052 1 12.186470698951455 0.8238978424746415 13.168599316463794 0 1 0
887 2 10.578600739098464 7.749049228865212 11.015487437717987 0 0 0
890 3 10.605219288124742 7.946606340710984 12.453187361238257 0 0 0
891 1 11.0926896373502 8.774698905051526 12.665439736334564 0 0 0
6050 2 12.363631710187287 1.8360445920260136 12.724757235589014 0 1 0
6057 1 10.816783392873932 4.582243480035186 12.408881997497602 0 1 0
6051 1 13.056026362180264 1.6786614748308413 11.938862152973954 0 1 0
6053 2 11.08439616343239 2.5172772268432775 12.214982718480739 0 1 0
4843 1 13.605616600683426 7.079239449131168 10.557284399208443 0 0 0
6056 3 11.511276798092515 3.8493391283948517 12.17491027629938 0 1 0
3324 1 11.127550019169883 7.529813041205394 19.05843352164842 0 0 0
3322 1 10.990537062909164 5.941340924248224 19.78568680729894 0 0 0
3323 2 11.688369827629932 6.718443191448147 19.440978350196602 0 0 0
4849 1 14.797985608606883 4.45312930980731 11.446126035228062 0 0 0
4846 1 13.337556861836337 6.494655038980982 12.216022008161998 0 0 0
4845 1 14.938762979244505 6.767520257630806 11.719175647383402 0 0 0
4851 1 12.40751562224282 4.168557707093111 10.893212745107725 0 0 0
4847 2 14.224348065703007 5.020948832097596 10.691991461635443 0 0 0
4844 2 13.978776412565923 6.399851633125689 11.311193371970356 0 0 0
2690 3 16.091599731332952 8.83176929714742 14.987996475737624 0 0 0
2687 2 16.36050548473254 9.048908512886566 16.335833391166037 0 0 0
2688 1 17.2568106210472 8.562991581494554 16.7189855412071 0 0 0
2689 1 15.583175436453628 8.590621094348124 16.892438996783657 0 0 0
3326 2 12.689995687464945 6.133223520076124 18.439546212622634 0 0 0
2691 1 15.905034430758741 7.823242388676555 14.807239730450087 0 0 0
3327 1 11.988989826848371 5.899137471429237 17.624857691849744 0 0 0
795 1 14.245379721941912 10.184120546581585 11.310819597979762 0 1 0
793 1 15.816805434131192 9.975296779170993 10.661151575345658 0 1 0
5301 1 17.27817211962066 4.292912251290138 12.805573194282026 0 1 0
5300 3 17.348218774990183 5.351680273353365 12.81444317150133 0 1 0
4230 1 16.01456082307652 5.936171594312586 13.62817429840405 0 0 0
4229 3 15.617070490563133 6.382917434067835 14.438677106603352 0 0 0
3213 1 12.785314379662923 3.145800532417498 17.810031406939103 0 1 0
3212 3 12.034781207506557 2.5302848980457537 17.72104367715281 0 1 0
4226 2 14.355007907059745 5.7693540271278865 14.761346592405957 0 0 0
4225 1 15.265099985081905 3.959795905644849 14.479347439824949 0 0 0
3141 1 10.89391338012849 2.409650663370382 18.999360617404097 0 1 0
801 1 16.835552877941605 9.793740530743358 13.70806137469503 0 1 0
4227 1 13.613907533117143 5.782765484024357 14.002033753080127 0 0 0
4224 1 15.13067885686281 4.4160804842706 16.188884952649254 0 0 0
4223 2 14.633588514796294 4.365920174441047 15.259885958277946 0 0 0
4228 1 13.945660117916706 6.287153573747932 15.576727697581136 0 0 0
5297 2 17.660069089095245 5.792185609265019 11.558114178583082 0 1 0
549 1 16.834910824628157 2.108041864413204 11.894722340300975 0 1 0
3209 2 12.166798866966918 1.3878441614984003 16.832088158138017 0 1 0
4222 1 13.76821116231617 3.7087413881743876 15.321603634236126 0 0 0
3211 1 11.27790174755574 0.9004932500601004 17.046122848811176 0 1 0
548 3 16.627432766511504 2.6944489047146187 12.711293679668621 0 1 0
3210 1 12.211180757873349 1.8627352913703488 15.810709929478264 0 1 0
3206 2 13.479575322224102 0.51831764629414 17.144986698098958 0 1 0
3325 1 12.263076722611023 6.937085186824151 20.371515752443827 0 0 0
3205 1 14.259457290246244 1.2485241015763284 17.040430739892052 0 1 0
546 1 17.351628233505767 2.2472321035689258 14.616447825434758 0 1 0
3329 3 13.263392318882516 4.893731231570915 18.935629399146134 0 1 0
1126 1 17.822489079443912 3.864853111652132 20.179453465186285 0 0 0
5299 1 16.94203248146252 5.450671148926302 10.744093299314464 0 0 0
5293 1 19.300851542875623 4.532088672961576 11.068738972541688 0 1 0
5294 2 19.080554781069377 5.575503577272466 11.216695823805386 0 1 0
5295 1 19.824818595829843 5.909556302311422 11.962019747579031 0 1 0
889 1 11.610340480353976 7.713523720739538 10.664052921265705 0 0 0
3014 3 11.57795070836159 9.94361248413272 14.245417879484963 0 1 0
3328 1 13.477671683099564 6.836411762255024 18.163887873881595 0 0 0
882 1 17.702982810310115 7.580066576986544 18.54766460150795 0 0 0
3330 1 14.235781378745695 5.048805265171765 19.09835501736294 0 1 0
1799 3 19.523936767095684 8.347035776921501 18.025573258096028 0 0 0
5298 1 17.394639989787752 6.84544037636586 11.50766641667699 0 1 0
1800 1 19.594457022866553 8.859881308581448 17.18287830092017 0 0 0
545 2 17.078857487593122 1.6917980151420764 13.755924507500266 0 1 0
1525 1 19.956430143414917 3.9716125448711406 15.160286813219754 0 0 0
3012 1 12.76573287898044 8.657211496909618 15.350504355819048 0 1 0
3011 2 11.737153979039066 9.04723673753715 15.423494340354411 0 1 0
547 1 17.993345728384092 1.30619405924655 13.386009432423503 0 1 0
542 2 16.02585582230242 0.6171481077716889 13.99181935098008 0 1 0
544 1 15.080709682192984 0.8854429070445262 14.51953421278688 0 1 0
881 3 16.860999163171588 7.167395187961427 18.88348039061124 0 0 0
1133 3 15.680607941944269 4.889469584873443 19.35686904419289 0 0 0
1131 1 16.15875759023438 3.4875825015261106 17.913568285942844 0 0 0
1130 2 16.060407825089456 3.552670715167993 18.962204886112218 0 0 0
1127 2 17.264846464276836 3.0023284933617655 19.70654719732238 0 0 0
1128 1 17.93479578617701 2.2899163857937634 19.126868533368413 0 0 0
1134 1 16.410045764155633 5.478658161037547 19.301882602355146 0 0 0
2177 3 19.344925235096998 9.0668637377452 15.34761156517319 0 1 0
2178 1 19.351439118673202 9.975390772274519 14.980033516712723 0 1 0
2174 2 19.836869643253035 8.139193759592223 14.355399979242982 0 1 0
2176 1 18.992620169857418 7.641393031000937 13.785642031700052 0 1 0
2173 1 20.26085228675924 6.680795891004131 15.932332275775106 0 0 0
1522 1 18.9624745972808 3.9522018450400274 16.657238103672825 0 0 0
1523 2 19.770372050045886 3.4553571707426194 16.09407595739455 0 0 0
1524 1 19.393731499453676 2.4728674641592 15.833411297831304 0 0 0
794 2 15.24033701440994 9.911035340098419 11.598199110129999 0 1 0
3010 1 11.866794491831708 9.108676337204077 17.556861423068664 0 1 0
3008 2 11.422359836666672 9.701258587577168 16.781853882916206 0 1 0
3007 1 10.279497203379623 9.520054408128733 16.9145931950972 0 1 0
796 1 15.24375823011903 8.904735430757954 11.958155891752783 0 1 0
3208 1 13.418223782696339 0.2136346148436895 18.15173098948343 0 1 0
543 1 15.624098471848303 0.19296050993791353 13.04216514229863 0 1 0
390 1 19.321453367942194 0.24852036755242182 16.296044306312844 0 0 0
874 1 14.866882878476545 9.156134960486677 19.22530034941147 0 0 0
875 2 15.817890732806843 9.205747681143494 19.804032486545612 0 0 0
876 1 16.5009204592733 10.017948548688395 19.37222775040024 0 0 0
1132 1 15.243163717112594 2.9504424340501654 19.22570078140688 0 0 0
878 2 16.40540808173608 7.870951669264225 20.056530845160914 0 0 0
2175 1 20.487492360949815 8.656445516760058 13.564911926227042 0 1 0
1528 1 21.18943615223989 4.149885645783442 17.59809211614446 0 0 0
1527 1 21.819891590605465 2.946845983346027 16.488653384475672 0 0 0
1798 1 20.502882099332655 7.353478524269547 19.43231849504947 0 0 0
624 1 25.36438171815433 2.2402150986141836 10.419322206131772 0 0 0
2170 1 21.671206649066434 7.4611565356341885 15.126288153438944 0 0 0
2172 1 20.78618721809823 6.173659421807485 14.348548448293464 0 0 0
1795 1 21.13491893457376 9.986529037270845 18.695164577821473 0 0 0
5920 1 25.182543688925946 6.689645174607637 10.64700922132533 0 0 0
5919 1 25.37114880429633 5.079430834116129 10.917634073214563 0 0 0
5916 1 23.73182751113915 6.918272463977442 12.868546939866837 0 0 0
5917 1 23.841267791161787 5.127430226842766 12.908363804034966 0 0 0
4686 1 23.423852917215005 5.655404758809558 15.030904674529806 0 0 0
4681 1 24.93239816711835 5.407887077924278 17.61841887859167 0 0 0
4687 1 23.546383989125253 6.987353517416358 16.00393846617146 0 0 0
4683 1 24.593686013440465 4.107096892937602 16.611520261183752 0 0 0
4689 1 25.763586862769742 7.106864020375519 15.507769535455967 0 0 0
4688 3 25.307502130126334 6.375616425398952 15.011125101393796 0 0 0
4685 2 24.106070471052668 6.081063491795047 15.7002505812318 0 0 0
4682 2 24.22153504810315 5.095322251848783 16.863798176623504 0 0 0
4684 1 23.212842322113964 5.132780377626769 17.320642089779955 0 0 0
1526 2 20.98476260993829 3.293229048251984 16.963876629725668 0 0 0
679 1 24.36438744540301 3.305650254161414 12.915726504157307 0 1 0
1529 3 20.705955404252265 2.25776370899385 17.92294046871076 0 0 0
677 2 24.20561488139002 2.231825436678901 13.044124283878679 0 1 0
680 2 24.012850357012862 1.9588092493746527 14.55016465217397 0 1 0
682 1 23.152565686694494 2.581431258475911 14.759592601339843 0 1 0
5922 1 26.011570668889764 6.387150927922418 13.238613363517565 0 0 0
5918 2 25.185461940560295 6.015975833823955 11.488746401678469 0 0 0
5921 3 26.374431710032507 6.280899356634592 12.347111068648356 0 0 0
5915 2 23.85803491120626 6.027680141846544 12.23692616788859 0 0 0
5914 1 23.008724923598102 5.875919504900386 11.489463357627399 0 0 0
588 1 28.97785590497779 5.212343479351106 15.781571624516324 0 1 0
587 2 28.07498394766238 4.921769091361998 16.306119157793333 0 1 0
1530 1 21.34200837484817 1.5461121942558396 17.673798146494754 0 0 0
591 1 28.926164373972394 5.734938299563787 18.15670776697314 0 1 0
1229 2 27.803048617473923 8.758198807487842 16.672150163522517 0 0 1
1232 3 26.595482642206814 8.603574071688747 15.843179043459601 0 0 0
1233 1 26.094671193341014 9.466999795226922 16.04174770651522 0 0 0
589 1 27.27269490547564 5.721826362967239 16.225775129646486 0 1 0
586 1 27.61193205859568 3.931056178798091 16.018851166370386 0 1 0
681 1 24.944920551966604 2.3225683219534394 15.058625573762926 0 1 0
1231 1 28.58671500812504 8.251605203422013 16.09181354042352 0 0 1
592 1 27.66720703371157 4.481494086480244 18.34141748957971 0 1 0
590 2 28.561586516323626 4.780015222248783 17.75299103063044 0 1 0
678 1 24.965024976454185 1.556976359571793 12.63413446341517 0 1 0
2026 1 29.057979411908306 5.575580985834624 12.961904167425049 0 0 0
2029 1 30.04734739870474 6.034689089146233 14.210364933227938 0 0 0
2027 2 30.092139281263528 5.396504861847789 13.355542997039768 0 0 0
987 1 28.293459020025427 7.971664076068506 12.855840681689248 0 0 0
986 2 28.5093624221911 8.987710126997166 13.118838742901264 0 0 0
676 1 23.264688402126648 1.9215393889020007 12.49111955782284 0 1 0
2171 2 20.62066326251135 7.04614400682585 15.005626115728843 0 0 0
1226 2 27.552848640453742 8.228719693798588 17.98223186125655 0 0 1
1227 1 27.12131502887093 7.231906475980182 17.850981488644965 0 0 1
2031 1 29.888769440736326 3.5977031271962794 14.511749604364054 0 0 0
1230 1 28.052953802670043 9.83414441535277 16.763164952925994 0 0 1
593 3 29.62626346398492 3.8663159980853203 17.950722789237922 0 1 0
1228 1 26.80378097393726 8.750839776655194 18.47620900646467 0 0 1
1225 1 28.489484436801995 8.184819152741797 18.486938455249387 0 0 1
988 1 29.083674624381462 9.112009970590993 14.022940534730962 0 0 0
1797 1 21.241413803753506 7.244086099403653 17.915080230574144 0 0 0
984 1 28.646523252861197 9.913784870328701 11.084941360617417 0 0 0
1623 1 25.24316967952041 0.5958716310476986 17.070638851468587 0 0 0
684 1 23.179757193363795 0.554008102077744 15.631138943800668 0 1 0
683 3 23.733361113055583 0.613624533628697 14.737683649121472 0 1 0
594 1 30.396627419711468 4.268566451253093 17.468227179415898 0 1 0
819 1 28.782534621833896 2.0898085137743743 18.014416837662026 0 0 0
818 3 28.181554299818355 1.355794166999663 17.832141387412964 0 0 0
983 2 29.22588020310376 9.787365844249695 11.979662845996899 0 0 0
1628 3 22.57098240912573 0.3954375710724384 17.182377864009982 0 0 0
990 1 26.969896773739674 9.191798693690744 14.187955286870723 0 0 0
989 3 27.341064693946425 9.688140569895515 13.477016452229913 0 0 0
985 1 30.200057284764213 9.369831139039437 11.7439885221234 0 0 0
815 2 28.626038639137523 0.5291039049203602 16.819774958155275 0 0 0
1621 1 25.57560811062777 0.0772072239701129 18.707614443165827 0 0 0
817 1 29.680480840953567 0.42595970209574213 16.91159621353453 0 0 0
1625 2 23.556678692049314 0.3374822372434314 18.315706047695418 0 0 0
1627 1 23.373060207140863 1.3681899116135228 18.7149732566975 0 0 0
135 1 27.83816147722378 1.201761219838113 19.58908169072373 0 1 0
811 1 28.603456082601816 1.9563440133912133 15.357325042069256 0 0 0
1793 2 21.570356256183974 9.115880701627498 19.13382914760097 0 0 0
1796 2 20.762622818040136 7.954397045808512 18.56295603368294 0 0 0
1125 1 20.99189027192109 2.245224987236888 19.61890322909756 0 0 0
2449 1 22.894163816806607 6.958367696720513 20.31285130550657 0 1 0
2030 2 30.536095961705506 3.9868247145368882 13.714136026519348 0 0 0
2032 1 30.56430893166775 3.3058266525181823 12.92565641585861 0 0 0
813 1 27.064508042430923 0.8841338030198008 15.50230244986932 0 0 0
812 2 28.180181142418515 0.9602381865614984 15.478531799715228 0 0 0
814 1 28.602816458398593 0.3155401197478226 14.658466139081376 0 0 0
1792 1 22.652161001447794 9.004956134037107 18.831792889527083 0 0 0
5877 1 30.578623683233456 4.242929038313256 19.530013105512 0 0 0
1794 1 21.550804458762098 9.020159334086683 20.25390304196108 0 0 0
1096 1 24.14673844823801 9.772372722454046 11.44404272477391 0 0 0
2860 1 23.344496033557338 0.03055863613531784 11.445565638718744 0 1 0
2452 1 22.08045430238723 5.3374393064909675 19.88517092814792 0 1 0
127 1 26.26676751459938 3.4909714427755163 20.338080979736592 0 1 0
3353 2 40.41280262706321 1.7756234049728004 10.740726439805044 -1 0 0
5689 1 36.745745588814266 8.576976757390335 10.375174871080743 0 0 0
3354 1 40.077553333398875 0.903671656071661 11.20986007668432 -1 0 0
5241 1 40.710961768129366 4.77845965710843 10.223495319079483 0 0 0
6202 1 38.816318671084424 9.71186164543163 18.181162851854687 -1 0 0
2028 1 30.815669084440476 5.897887215066742 12.745098708087728 0 0 0
4092 1 31.062945360332467 6.556500539462622 16.6110115766457 0 0 0
2033 3 31.868025838374777 4.021712560128706 14.202035679012488 0 0 0
3355 1 39.74278694165765 2.5855977874374183 10.890468431870765 -1 0 0
5692 1 35.61227150396456 7.287617025031364 10.539370342854035 0 0 0
4543 1 37.396596078996815 2.056120146400267 10.908292697116819 -1 0 0
5243 2 39.092822036654454 6.159481645264336 10.333743947377089 0 0 0
4094 3 31.808254869318368 4.703806966803779 16.743129296205364 0 0 0
4095 1 31.732986894194006 4.3451420172796995 15.784440352584207 0 0 0
4091 2 32.04078480514656 6.062670846823668 16.642538549763707 0 0 0
5244 1 38.63232404420471 5.733012581169386 11.251138886711507 0 0 0
2620 1 40.26363329997942 4.5251358414103535 14.916855044290232 0 0 0
4090 1 32.344390684356135 6.668792694447778 18.67818586916109 0 0 0
5240 2 40.56453434864596 5.84551830877447 10.255463981196408 0 0 0
6209 3 40.565690245249414 8.778574394517982 16.548998681861146 -1 0 0
6203 2 38.8419200610541 8.615462915422228 18.203232380352837 -1 0 0
6205 1 38.012970485119894 8.231668647548972 17.611897125039125 -1 0 0
5695 1 33.721294857050296 8.811433237726842 10.459565992811893 0 0 0
2623 1 40.46475031939101 2.867865349129289 14.394463364010086 0 0 0
4089 1 33.81302447548664 6.125863376711796 18.066851159595927 0 0 0
6206 2 40.202835962496856 8.183896955917982 17.739687167942535 -1 0 0
6204 1 38.59433082008642 8.351731164145676 19.220783019614068 -1 0 0
5245 1 39.06215081680103 7.250114779837437 10.40344744540883 0 0 0
2626 1 38.95203661228272 3.36652344143891 12.452830151663282 0 0 0
6208 1 40.24460461553435 7.130734886473602 17.508374455564272 -1 0 0
2621 2 40.164280163567334 3.8361748623476752 14.072637143778692 0 0 0
2625 1 38.567014194679295 4.908098386400506 13.169507951718558 0 0 0
5581 1 34.46182531199601 5.0423662101333395 15.297492715747003 0 0 0
5584 1 36.175700214166405 4.630865608240803 15.832905343997338 0 0 0
5582 2 35.49818497702222 5.374995521592076 15.347880291899763 0 0 0
2627 3 37.777087534890505 3.2581381242135037 14.135110558781372 0 0 0
2628 1 37.98707185976887 3.105482122123495 15.0734954187021 0 0 0
4653 1 34.24411772480206 3.3767820027881967 13.43387859567051 0 0 0
2034 1 32.281654655670735 3.200388869590483 13.912708164826673 0 0 0
4652 3 33.766710182906905 2.503290539793228 13.362913928285487 0 0 0
5587 1 36.66844851430847 6.009551861186646 13.556499991209659 0 0 0
5588 3 35.465703707990855 4.28883426377183 13.23725860916388 0 0 0
5589 1 36.283587067693006 3.7138171363180272 13.347406665186607 0 0 0
5585 2 35.676033674625735 5.5624303752622755 13.87699188407526 0 0 0
5583 1 35.54349873818946 6.259706236447965 16.04862446149117 0 0 0
5586 1 34.94145938553919 6.2447582082299045 13.436581467153378 0 0 0
4093 1 32.51170739399048 6.212250702358737 15.641036740232039 0 0 0
4088 2 32.86452810789623 6.616489194511994 17.76713421935013 0 0 0
4087 1 32.98324014126351 7.651877011148557 17.551005727031097 0 0 0
5693 2 34.73511862575637 9.235202814910313 10.50078813232885 0 0 0
2960 3 37.99051210062709 3.1913872573464386 16.661932548200348 0 0 0
2961 1 38.495387823920716 3.8097479362651074 17.24525324095935 0 0 0
2624 2 38.761002427671976 3.835670857470443 13.409381514716575 0 0 0
4649 2 34.747888570376396 1.551438001639967 13.359676685524489 0 0 0
4650 1 35.36361645623982 1.6423105584921018 14.246102859941514 0 0 0
2958 1 38.48867880123476 1.9484367367776019 18.1561168271416 0 0 0
2957 2 38.16323469403733 1.88391243074082 17.133911609470005 0 0 0
4646 2 34.11545828436246 0.2205957828784711 13.400293365878353 0 0 0
5873 2 32.30667556941348 3.598317666172412 19.991453993838288 0 0 0
4647 1 33.60189661819497 0.040737127406351624 14.297856284877268 0 0 0
2460 1 34.41161947496576 9.516176184397304 18.000382451329397 0 0 0
2959 1 39.01027226685843 1.4361499676974743 16.573333243390817 0 0 0
3293 3 39.30528702129585 4.448676915195609 18.682448787192254 -1 0 0
3294 1 40.11871178881789 4.450577822285728 19.165403395586075 -1 0 0
2458 1 35.589994999186615 8.56915785970809 17.301989055073467 0 0 0
5869 1 32.63877786653476 1.5429468232435115 19.65623592539186 0 0 0
2464 1 34.15435404361368 8.93060015218974 15.510121640127718 0 0 0
4651 1 35.45356256278331 1.4770798664403362 12.502603372780959 0 0 0
4645 1 33.392205982565166 0.2076895868764096 12.546481540619741 0 0 0
3290 2 38.252840287158506 5.054840425206756 19.51117497857699 0 0 0
5876 3 31.243838029557054 4.572339050124675 20.138417892390652 0 0 0
3909 1 39.70585354193347 8.532874930120071 13.099237368611599 0 0 0
3908 2 38.73723526231228 8.864364905064296 13.373739175787962 0 0 0
3910 1 37.86815742242305 8.317004218749313 12.962925612908828 0 0 0
3286 1 36.47582634317926 3.8122557793366667 19.165939900350907 0 0 0
5871 1 31.528192540849474 2.3668075993823092 18.48901136865931 0 0 0
3288 1 36.61547847241877 5.296005323141745 18.00624865505661 0 0 0
3287 2 36.7747605738061 4.84261241237696 19.01425913557568 0 0 0
5870 2 31.803002160434385 2.304013553603374 19.52467218286941 0 0 0
3907 1 38.58529189866065 8.890828399705791 14.46788888786776 0 0 0
3289 1 36.07784417797162 5.40500006097684 19.631201322489925 -1 0 0
2459 2 35.21529772388482 9.60734241210282 17.30508820398552 0 0 0
5696 3 34.76865237232051 9.58105211416521 11.959812491286188 0 0 0
2462 2 34.668395526840975 9.826807546807425 15.862446469683352 0 0 0
2463 1 35.513072581103664 10.133274628022846 15.24353562649451 0 0 0
2954 2 36.85999099958775 1.1265226017184895 17.0810730912359 0 0 0
2955 1 36.37392466857632 0.9783914704029214 16.02948823424597 0 0 0
2953 1 36.97074559149682 0.10567237501345068 17.429816788972 0 0 0
2956 1 36.10322110360712 1.5756075832825909 17.736787896851055 0 0 0
5875 1 32.938907885640376 4.063635126638405 19.23871429929238 0 0 0
3805 1 39.7067029473413 0.1277185843612017 19.809145595055814 0 1 0
6210 1 40.63319932662797 9.748427855032112 16.670052118913045 -1 0 0
4538 2 36.76322489665649 0.08367424479621555 10.289173802854343 -1 0 0
3291 1 38.447093879212844 6.137235888901192 19.61175281414591 0 0 0
5872 1 30.985248636387407 1.9207433675236056 20.116383619563017 0 0 0
5530 1 34.25843792361378 8.481520334750833 20.042602923518142 0 0 0
6279 1 1.441507850284611 10.27803398043705 18.78756265411611 1 0 0
6278 2 2.177733734733413 10.197825946026256 19.615599422516503 1 0 0
2078 3 6.214791108292202 16.737665409826583 10.883424748714008 1 0 0
3195 1 3.481119869549772 18.58440572466745 10.903247953743717 0 0 0
3194 3 2.7247431834243327 18.207053454888932 11.314469244301854 0 0 0
1669 1 5.14622155487471 11.148816931469833 10.957787146391807 0 0 0
2521 1 8.922766307925912 11.126717958332053 13.533024181699304 1 0 0
2522 2 8.064273981594141 11.858553622175553 13.762113399767387 1 0 0
2523 1 8.074677967865382 12.309964320192119 14.72246766590897 1 0 0
6281 3 2.8532334898762874 11.485252476165378 19.64769481785975 1 0 0
2524 1 8.310715420762122 12.675253285311292 13.02166036074724 1 0 0
6282 1 3.8399639963304573 11.390689556096639 19.890367430202705 1 0 0
3193 1 3.402464385038774 16.294067201716167 11.5503923384757 0 0 0
4329 1 1.3054811365262913 18.932986732427427 11.301204836546798 1 0 1
4328 3 0.4497845064194971 19.51080544370202 11.332775273934184 1 0 1
2074 1 7.8048238779121535 18.887462976920606 11.494447511842736 1 0 0
2071 1 8.984472208113196 17.52497194088571 11.267420525032314 1 0 0
1218 1 7.993425903114598 13.497340970146492 10.828762092357248 0 0 0
3192 1 3.89251478549193 17.491241830479062 12.797960178542706 0 0 0
2525 2 6.761927889925861 11.035023353312198 13.5215159028963 1 0 0
2526 1 6.7682699444970345 10.823053045094897 12.421461800314532 1 0 0
3755 2 2.063367587972784 10.359034316719686 12.733855929474139 0 0 0
3756 1 2.891261234548916 10.339888085396053 12.063396376233024 0 0 0
2528 3 5.510692858239607 11.610186259980251 13.756021968735515 1 0 0
2076 1 7.549425168763622 15.923813229276634 12.340581629236198 0 0 0
2072 2 8.14679533938505 17.93104455889454 11.905488725954795 1 0 0
2075 2 7.0723931125899036 16.82596402148331 12.046138963737828 1 0 0
2077 1 6.402808022158972 17.130785182164107 12.916103086644862 0 0 0
2073 1 8.519754770161766 18.1275463109775 12.916681853327823 1 0 0
3191 2 3.0734636401851443 17.139705380878564 12.139875679438033 0 0 0
5703 1 5.259276775202916 13.320459163881987 18.542638824950007 0 0 0
3190 1 1.432686880681112 17.657442696161134 13.546963725107657 0 0 0
5562 1 2.5130292482853025 12.487375408290747 18.334458736083235 0 0 0
5561 3 2.4501070081993297 12.96534196870306 17.442113347985043 0 0 0
5558 2 2.264915351335557 14.36528584395761 17.951420226714088 0 0 0
5705 3 5.513930785377302 11.764789918173431 19.885499162617897 0 0 0
5702 2 5.861358855353124 12.39867543253318 18.618702169121732 0 0 0
5704 1 5.559304620111144 11.672262964458493 17.811435192659026 0 0 0
3188 2 1.8606018277898353 16.8566524019185 12.917116286689167 0 0 0
2529 1 5.472354653397337 11.848678803693266 14.751801237068618 1 0 0
341 3 5.297450357735698 13.348962453976327 15.933049910972855 1 0 0
342 1 4.468975481415982 13.384330297855797 16.444053339747065 1 0 0
340 1 6.303467615104478 15.123655577790371 16.437045564562695 1 0 0
338 2 5.76281937179574 14.675552435850232 15.568158994246502 1 0 0
339 1 6.4492238240276745 14.53411195237922 14.731613668870995 1 0 0
334 1 4.237952566375936 16.02196060348768 16.276403823907927 1 0 0
335 2 4.5712729471329245 15.507602390192039 15.361037404942818 1 0 0
336 1 3.818321372395677 14.902323224375396 14.957169598757417 1 0 0
337 1 4.8563142467971385 16.293782862516256 14.694094200136732 1 0 0
3761 3 2.778934356673753 12.491073951928524 13.958631697977399 0 0 0
5555 2 1.2542013679444495 14.452165700216478 19.03905294269434 0 0 0
1507 1 5.77707734335617 19.058099779874688 15.747110951791415 0 0 0
5557 1 1.6819972858925605 14.150531513718814 19.972279307887938 0 0 0
5556 1 0.9070882109279245 15.515777997426454 19.123402154887298 0 0 0
5700 1 7.851043912535854 11.673102010233467 18.618384872160714 0 0 0
5701 1 7.600789411512271 13.323849628213322 19.413064143821735 0 0 0
5699 2 7.327283759236957 12.636940628425839 18.531866122162864 0 0 0
3762 1 3.612122310454045 12.205846643245044 13.515464590980608 0 0 0
498 1 10.18485990339319 14.846719992391682 15.822322390465443 0 0 0
5698 1 7.770110759397097 13.125451350054034 17.67096142650543 0 0 0
3698 3 9.613680805652372 18.199525569081242 19.246899134098484 0 0 0
3758 2 1.7792322651446337 11.828428899062375 13.113967112479125 0 0 0
5559 1 1.9200611110614392 14.881831515434126 17.04980384677369 0 0 0
5560 1 3.278836948236053 14.718707980545537 18.169615727561087 0 0 0
499 1 9.49925811445119 15.559364021580942 17.234587155947192 0 0 0
3759 1 1.64133312172461 12.38171461241032 12.194074868248384 0 0 0
3760 1 0.726011802304032 11.886113604305404 13.52307363272694 0 0 0
57 1 1.2701560017345253 18.817030902614047 15.64526799396573 1 0 0
3187 1 2.0725005361236417 16.05767284434878 13.613267360858309 0 0 0
3189 1 1.02232097185241 16.478263321747704 12.308688010896677 0 0 0
5554 1 0.3835679264655785 13.779105400390007 18.83235058908724 0 0 0
3697 1 8.004165835243063 19.088624034087143 20.063071102142132 0 0 0
3695 2 8.343820355260641 18.071840166879305 19.747671296512333 0 0 0
3696 1 7.666709195212634 17.71133848939503 19.004373815583296 0 0 0
3699 1 9.895787506924083 19.164623787611465 19.189524134534324 0 0 0
5625 1 1.149907858910462 11.793915340256047 16.83410659669827 0 0 0
1505 2 5.634516295837344 20.050203219584688 16.101666531326785 0 0 0
1941 1 3.8600852141124378 18.804524752788975 19.345028766340956 0 0 0
1939 1 5.200159421660398 16.966701192615073 19.794418562919567 0 0 0
1942 1 2.627807858988299 17.629381946263173 19.950643974761174 0 0 0
1940 2 3.526333214527416 18.225065695673806 20.216968342563288 0 0 0
502 1 10.183832484569677 16.94043636006339 15.12058328256204 0 0 0
577 1 9.931444585022765 14.897480068524851 11.373861894448817 0 0 0
61 1 0.016141132744891706 19.872180487828025 13.852819465028393 1 0 0
5624 3 0.2459889021286145 11.460001497324107 16.728977192463436 0 0 0
56 2 1.508600142471282 19.78845171229956 15.277813475417682 1 0 0
55 1 2.414104604555174 19.603871804879066 14.7245090992881 1 0 0
58 1 1.86995751345409 20.275596900990234 16.163952262267365 1 0 0
1506 1 5.523676846491741 19.872441127115426 17.166206058794945 0 0 0
529 1 19.50011835259186 14.725668087142413 10.71943043878285 0 0 0
2684 2 16.456164568790953 10.507355183523241 16.564200426153896 0 0 0
2685 1 17.422967504833345 10.874443122431927 16.19047901507692 0 0 0
2686 1 16.450378899114284 10.537443802635027 17.645047046392037 0 0 0
798 1 15.800212199484767 11.92646028765356 12.17695790072695 0 1 0
797 2 15.733234977291756 10.885092876113983 12.57368706807227 0 1 0
800 3 17.01719690482216 10.478096617231516 13.05824005647275 0 1 0
799 1 15.109829811391297 10.931112976161053 13.461760636192702 0 1 0
500 2 10.869156228165458 16.666559647074195 15.954790536089439 0 0 0
497 2 10.418823604219966 15.470669711379514 16.664656146418846 0 0 0
496 1 11.114502159135032 15.030551728991341 17.36470798523288 0 0 0
504 1 10.541296628854866 17.839204446381782 17.512491236611076 0 0 0
503 3 11.051993492828071 17.865363290515578 16.684641107836647 0 0 0
3009 1 11.72300109952359 10.809708035635726 16.717626541450837 0 1 0
2683 1 15.662080256377749 10.9731681942542 16.05739493007693 0 0 0
5841 1 18.505482293126672 11.061528207462025 13.434504569302046 0 1 0
5840 3 19.415555155348244 11.127107117743321 13.7050480403186 0 1 0
501 1 11.847109937368215 16.41283940637948 15.527810431094244 0 0 0
3015 1 12.125517491583128 10.776381527894499 14.339714530920002 0 1 0
3060 1 17.286228942115603 18.437416732864186 10.372222946713208 0 0 0
741 1 14.183863174028144 17.170715789963623 10.736698143420627 0 0 1
739 1 14.810501058735577 18.804992430617844 10.644617003589866 0 0 1
1695 1 13.37167123845438 14.89972770929922 13.793698630743146 0 0 0
582 1 11.316041241079345 12.93251667302576 10.403747125634405 0 0 0
3481 1 14.792277167473825 13.576981782434174 18.219995334841368 0 0 0
1699 1 12.401861303260683 13.62709040887953 15.575352684979789 0 0 0
581 2 11.833065218769999 13.818104062888207 10.83418427368211 0 0 0
1693 1 14.520835610939777 15.030248515798863 15.266412417608933 0 0 0
1694 2 14.024744454395526 14.387931870482893 14.49024753051654 0 0 0
1700 3 13.012326915260967 12.302163030631405 14.149961118937807 0 0 0
1696 1 14.962034108167842 14.008371804252123 13.942904569453942 0 0 0
1697 2 13.369409333026649 13.234631111991048 15.175644633125836 0 0 0
1701 1 13.083315354995666 12.58154597817279 13.221971487427918 0 0 0
579 1 11.421743333754556 15.469161353380064 12.168467258282378 0 0 0
578 2 10.887005259663265 14.574918423227484 11.80147070482196 0 0 0
580 1 10.58475497769069 13.973571104310118 12.640195192982825 0 0 0
1873 1 15.790444220186027 14.135772037439905 11.707374243644962 0 0 0
3480 1 16.267405940127627 12.60165506900145 17.88811665402232 0 0 0
1698 1 13.964068148037104 12.768603260641337 15.976675317532179 0 0 0
1876 1 17.523830843997146 13.760341966325118 11.19819751128198 0 0 0
584 3 12.9765469092474 13.360873781906534 11.569505293732849 0 0 0
585 1 13.682148009983226 13.272106671713907 10.880824263813643 0 0 0
1874 2 16.538231130571898 14.0890175639707 10.881661704486794 0 0 0
1875 1 16.50338897341066 15.132263706985583 10.574328485066651 0 0 0
3059 3 17.629400017684947 19.16217246421314 10.961973698420344 0 0 0
2259 1 17.22218465411858 18.869476556835217 12.900193989066103 0 0 0
2254 1 18.42968781213906 16.381249767996028 13.997896433523163 0 0 0
2257 1 15.952568187863498 17.048673125576176 14.580704851415955 0 0 0
2255 2 16.39677696300909 17.33479420984053 13.630849735011356 0 0 0
2258 3 16.7351395071487 18.688748022415687 13.781768023632946 0 0 0
2253 1 17.110525934557963 15.241832315171564 13.474962387475223 0 0 0
2252 2 17.513540711398687 16.244353360114737 13.31474282523934 0 0 0
2256 1 15.637478948505422 17.169710173193153 12.839471337737514 0 0 0
2251 1 17.753470232034687 16.352839857197658 12.288981437100448 0 0 0
3479 2 15.885538771770618 13.556425328446407 18.291432453904076 0 0 0
1719 1 17.539721315926077 19.916144792696624 15.352651165009071 0 0 0
1715 2 18.947962443721117 19.593372575295763 16.665672154766224 0 0 0
4464 1 15.117947991210352 18.65248893671864 18.60512831705938 0 0 0
4460 2 13.762997999114328 17.303055609738646 18.141556188326085 0 0 0
4461 1 14.459246513220029 16.80924281420041 17.399609169919415 0 0 0
4462 1 13.056206932207528 17.934020738025094 17.638037745394413 0 0 0
4457 2 13.091956219564423 16.186274734697413 18.966488962819 0 0 0
4458 1 12.791106408366195 15.333378767134295 18.392767680122695 0 0 0
4456 1 13.842396123971355 15.9212834035612 19.782214970466537 0 0 0
4459 1 12.21795279432774 16.504281025150295 19.493110427491953 0 0 0
4463 3 14.54732221555352 18.038320405006203 19.093413832077523 0 0 0
242 3 17.719829784295758 16.715445135149217 18.95787194601589 0 0 0
1711 1 19.819531618897386 19.14882019264246 14.75302726189116 0 0 0
1712 2 20.1513785636417 19.386897256872995 15.79007997659911 0 0 0
1716 1 18.392208452158197 18.6337628279361 16.746681623013558 0 0 0
243 1 18.62071908631462 16.329088183135845 18.848410372319528 0 0 0
3482 3 16.44659266030929 14.620097088459943 17.41506705704769 0 0 0
775 1 11.179976385100636 17.931260700658367 12.77377982732428 0 0 0
3483 1 16.795804173210392 15.375359145738088 17.937567611203388 0 0 0
778 1 12.169688609447277 19.06477974424713 11.860816526832393 0 0 0
901 1 18.537561725012317 14.35688847361706 17.35911250792829 0 0 0
1080 1 11.37729112061623 20.11522053122837 20.331834614315873 0 0 0
241 1 18.41265228257687 18.643065789091015 19.346506033217285 0 0 0
239 2 17.826807091687527 17.881727254141396 19.8099697545664 0 0 0
780 1 10.27500258028483 20.254129417346387 12.43035212245335 0 0 0
776 2 11.807178214162239 18.7906289826654 12.85144487752499 0 0 0
240 1 16.86785919648805 18.344478550422554 19.981075947637663 0 0 0
3476 2 16.274345546642223 13.802141977438199 19.765552051390763 0 0 0
3475 1 17.366790536445116 13.563479818348759 19.989170311268264 0 0 0
3477 1 15.801476679981548 12.992159593574636 20.344836399304896 0 0 0
3478 1 16.113373682438368 14.729047910514016 20.268263815073354 0 0 0
908 3 20.303572436572203 15.88091151756586 18.550606891192892 0 0 0
904 1 19.69580463152597 15.11924091722011 16.189962555342056 0 0 0
5837 2 19.874007235927664 12.470148175728653 13.72936590330901 0 1 0
5839 1 19.73043607420322 12.855160638521463 12.733014194522156 0 1 0
5838 1 19.263000400003488 13.077631027977937 14.498929028049522 0 1 0
903 1 19.8053550241503 13.319920050332323 16.593390932361867 0 0 0
902 2 19.557737297645556 14.290554152088658 16.972727376510488 0 0 0
906 1 20.322648204381796 13.862269506942658 18.86674202667951 0 0 0
2231 3 15.867542233021288 20.13721756043707 17.931217120199737 0 0 0
1717 1 19.166693222481335 20.111268655995023 17.626569078198003 0 0 0
2232 1 16.67524875020387 20.327765449922104 17.44787346928406 0 0 0
781 1 10.265791077577292 19.734476149839203 14.069126056963055 0 0 0
779 2 10.952487765594189 19.974500086812203 13.238109599658625 0 0 0
777 1 12.694872748054 18.58242870308549 13.493048774231818 0 0 0
3833 3 25.765653794199075 16.234485811640056 10.613561847552223 0 0 0
1092 1 24.03397393690976 12.790350865960944 10.815893181100646 0 0 0
3831 1 25.670997747836356 14.715449768005351 11.975242963880115 0 0 0
982 1 29.26572046283663 10.784256062365928 12.41097067668323 0 0 0
5890 1 20.49110354921382 10.694223641644452 10.574269311632179 0 0 0
5835 1 21.955697162442746 11.89947708284456 13.430523969285808 0 1 0
1714 1 20.699425086149006 20.345487081210802 15.645232485017848 0 0 0
1713 1 20.907780171545973 18.67160532148071 16.163980067770613 0 0 0
2821 1 27.635544956697082 12.639809898639227 11.578847168578147 0 0 0
2819 2 28.266300820092987 13.174789805451212 10.887382472986157 0 0 0
2820 1 29.260062660973162 12.803415023851226 10.920109697738342 0 0 0
2818 1 28.306296534656955 14.194058179872348 11.183155907030661 0 0 0
5836 1 21.549647294059575 12.006319784387767 15.087744401137517 0 1 0
5834 2 21.336978271624776 12.479053844238608 14.097416773169051 0 1 0
524 2 21.597426744523553 15.001258053841697 10.440163530444035 0 0 0
5833 1 21.769940376722573 13.482970200827442 14.177618448143141 0 1 0
4933 1 25.024246299514665 13.836357318136345 16.24850645144107 0 0 0
4936 1 23.75610232237703 13.564573810304708 14.973651159081227 0 0 0
4939 1 25.326595450004643 11.824651389945519 14.619342524074836 0 0 0
525 1 21.8032390214772 14.914776953486463 11.486410631683029 0 0 0
909 1 21.18689432441529 16.1055419161219 19.022294737042873 0 0 0
4934 2 24.190551434925826 13.223474609916098 15.91443272841941 0 0 0
4935 1 23.44908076153321 13.253202023864366 16.71344946389516 0 0 0
4940 3 25.427464665198507 11.129129652857767 16.43811052630822 0 0 0
4938 1 23.797464826584584 11.280558061280159 15.179669363707426 0 0 0
4937 2 24.676661454450805 11.817876872661659 15.489928999673163 0 0 0
6128 3 30.23389154189609 12.447711796832094 17.962576128910342 0 0 0
4941 1 26.322487501483515 11.591378794595158 16.464405517137354 0 0 0
5825 2 22.946416961760566 20.104156979924685 11.008464722990674 0 0 0
1093 1 22.811464929799097 11.564501996624923 10.402096424188576 0 0 0
1098 1 26.214196415030855 10.543345018120961 12.29203450674463 0 0 0
1097 3 25.84042709268855 10.850791371477984 11.461674486813072 0 0 0
1091 2 23.86069837178818 11.76110943753176 10.614796359301787 0 0 0
1095 1 24.029021689051497 11.043997190430812 12.639790896356313 0 0 0
1094 2 24.421750194432867 10.788668796070114 11.595153173298154 0 0 0
2994 1 27.99507582225694 11.804097569077783 14.427760008681853 0 0 0
2993 2 28.346951513307214 12.616729268810388 15.047303864376559 0 0 0
1532 2 24.324500345444775 17.26739324377459 17.567653369536146 0 0 0
1535 2 23.154184418477506 17.892383394530185 18.389533848429707 0 0 0
1539 1 23.088020044580077 17.402946987205002 20.250813216466497 0 0 0
1538 3 22.66251036010972 17.080693891392414 19.43698672385336 0 0 0
5829 1 23.629998830722784 18.08551057740289 11.574840168313623 0 0 0
5828 2 22.973158186632304 18.615790788726272 10.907770868394648 0 0 0
5830 1 21.96489631398726 18.214377275189484 10.977300874916036 0 0 0
1536 1 23.348627158533617 18.88029715002068 18.72988280529671 0 0 0
2996 3 28.049848884295496 12.331473754450577 16.37897257416105 0 0 0
3276 1 27.977248369961295 14.61077826790017 17.284347044519688 0 0 0
3275 3 28.230785360229437 15.503257851660514 17.52879042539073 0 0 0
3830 2 25.313973519796914 15.71005402697413 11.934741857430552 0 0 0
2990 2 27.67928631488815 13.857324697269116 14.553824903179276 0 0 0
2992 1 27.794398895666863 14.652546008924821 15.279908089097546 0 0 0
2991 1 28.193551874190298 14.11273232711289 13.581957269031632 0 0 0
2995 1 29.457414299441712 12.75769379355064 14.88464139156318 0 0 0
2989 1 26.614794591329307 13.739971189453668 14.369010681819294 0 0 0
905 2 20.45862740406944 14.560693487433076 18.08582911132888 0 0 0
2997 1 28.83345822255957 12.416915144939528 16.95205690774318 0 0 0
3827 2 25.748898768610168 16.56334928849423 13.080407185285749 0 0 0
5428 1 26.205171005786905 19.737103245636938 18.712388958869486 0 0 0
5292 1 27.226988630304458 15.9392134925455 18.686982398338728 0 0 0
3826 1 25.05347461188119 16.256869696426037 13.917621586849897 0 0 0
1533 1 23.949468217264215 16.22725734005583 17.24633357144257 0 0 0
1537 1 22.387595242152674 18.206219746269717 17.621730804714183 0 0 0
3832 1 24.22069369512313 15.798844107862012 11.828281120568407 0 0 0
1534 1 25.259395148835846 17.222662886818924 18.14642925155347 0 0 0
1531 1 24.45664169624353 17.88932428281291 16.654564895615145 0 0 0
3828 1 25.61381528025753 17.61300516959877 12.950743925994766 0 0 0
3829 1 26.73560817775623 16.256032302242748 13.331958109411172 0 0 0
5429 2 26.966382203070843 20.212023170246706 19.418708201190846 0 0 0
5432 2 27.702209163950027 19.142937948994202 20.273371536061042 0 0 0
5291 3 26.562224563779047 16.01471058576881 19.41782389505285 0 0 0
3272 2 29.625726372827806 15.6387786489322 17.017387109696134 0 0 0
3273 1 29.59454156353282 16.121280739319854 15.953621821840057 0 0 0
3274 1 29.9168394314097 14.61119264783736 16.83287280817461 0 0 0
3271 1 29.82616947203448 17.222062281174225 18.378817454152845 0 0 0
907 1 21.508983657815726 14.500959399309039 17.754081458618842 0 0 0
3270 1 30.45611614542203 15.768708303351156 19.040013427543364 0 0 0
3269 2 30.39943765913312 16.330498168342036 18.086254578328877 0 0 0
4423 1 23.827503772955858 20.114995918584736 15.939828667346518 0 0 0
5433 1 28.38555934900031 18.51826085987478 19.721323432086297 0 0 0
1497 1 28.536832396580547 19.883600671827374 15.708322773261981 0 0 0
5352 1 29.98754636475828 20.38379307613226 17.9565463200911 0 0 0
5290 1 25.599232282742392 14.222271365850197 19.38310987410615 0 0 0
552 1 30.452737912421874 13.806960525325627 12.66186437859933 0 0 0
553 1 30.540512636901923 12.098165014480601 12.321864032482855 0 0 0
1499 2 30.101144605407804 20.331012860949613 14.200784105869744 0 0 0
1500 1 29.812196399661396 19.62789542308389 13.376445032888993 0 0 0
6124 1 28.16985159412267 10.877823887411486 19.215534823175062 0 0 0
5288 2 26.301118450934183 14.728626722764545 20.026621460034576 0 0 0
5289 1 27.17897921835789 14.089848324105947 20.219402617856673 0 0 0
6125 2 30.300665835422187 11.63323956666827 19.123129084031977 0 0 0
6121 1 28.56083162770867 12.504176812217572 19.903767185861103 0 0 0
6122 2 28.918102567744278 11.4822098071556 19.817413803373263 0 0 0
4326 1 40.65244469979048 17.646691497272382 10.542200488807659 0 0 1
4323 1 39.078510813023364 18.889567265479933 12.581411413179337 0 0 1
4324 1 38.53444150389109 17.594239217563125 11.488048679613076 0 0 1
3565 1 35.2297434963389 14.360270644818177 11.662541813249012 0 0 0
2461 1 35.914038200206384 10.35169465770567 17.715960734676166 0 0 0
3913 1 38.74214411999565 10.421021257824417 11.906609913400356 0 0 0
2271 1 40.0260543272838 12.874865029935409 10.818457500799562 0 0 0
4325 2 40.231078440882186 18.65721546461297 10.72616023889401 0 0 1
4322 2 38.925245218453526 18.60714987428767 11.527854588826525 0 0 1
1282 1 39.39633474955695 17.446743910132305 14.287293373789444 0 0 0
1281 1 38.69444221581837 16.20766086767299 15.197188213616664 0 0 0
4321 1 38.26624988977763 19.30022183706431 11.116500170653497 0 0 1
2465 3 33.689787387936086 10.87774981763896 15.762456517932241 0 0 0
1503 1 31.40259044501352 20.038369675406397 15.692796912424981 0 0 0
3912 1 39.0494439200814 11.06793602442317 13.469076541781378 0 0 0
3915 1 36.55554283942465 10.320494435378741 12.436885949396757 0 0 0
5697 1 34.104619820198785 10.245539370869292 12.107860446172092 0 0 0
3911 2 38.50648602401948 10.274402281695409 12.941447464851517 0 0 0
3914 3 37.17227117141515 10.647451537673355 13.160462841919744 0 0 0
1279 1 37.93123960822626 16.72555665749035 13.618398098055827 0 0 0
1280 2 38.40693433360342 17.061171500698883 14.530812156728055 0 0 0
1720 1 32.148732046903554 17.407002808943368 12.39552104611109 0 0 0
5622 1 40.65348758902378 12.846962409538566 15.181318386252768 -1 0 0
5621 2 40.270785418432965 12.61375243662622 16.197532837990444 -1 0 0
550 1 31.539448230474527 13.147312661360447 11.41845617124016 0 0 0
1726 1 34.18960432416375 18.297363010747496 11.790672699023961 0 0 0
1724 2 33.83430750451785 18.557239416246215 12.787192308362512 0 0 0
1721 2 32.870196465605105 17.382582682455702 13.129867473495954 0 0 0
1725 1 34.73653834670499 18.378338362671734 13.36813023069834 0 0 0
1723 1 33.44660919144648 16.490203220665435 13.159336392821832 0 0 0
5620 1 38.62158936985317 11.435463316424565 15.525633802182181 -1 0 0
5618 2 38.765625651096315 12.300021844165263 16.128569635882055 -1 0 0
5619 1 38.40867432648868 12.058773705640755 17.15240302722843 -1 0 0
6129 1 31.1203541837903 12.629946965834163 17.734018899345457 0 0 0
556 1 32.09945118440855 12.468526066213213 14.23373653610105 0 0 0
5617 1 38.16725852071092 13.077403626580827 15.590346652223413 -1 0 0
3268 1 31.401967354873538 16.688169106707036 17.928862459193365 0 0 0
5623 1 40.522067125430425 13.465968418914237 16.894755568462063 -1 0 0
555 1 32.80523803052439 13.780958562321809 13.43970639084 0 0 0
554 2 32.3186039745742 12.823032458935177 13.244329879043262 0 0 0
551 2 31.13458485464078 12.963307966952279 12.362325092442399 0 0 0
1287 1 39.04928501009442 19.129259229187834 16.21919724253796 0 0 0
1285 1 36.588109505988314 17.788850948531493 15.379534187748051 0 0 0
1286 3 38.11396431945107 18.77966590433525 16.330398345889673 0 0 0
2466 1 33.69427435597702 11.292452164925518 14.888144616929843 0 0 0
1283 2 37.58596065151716 18.143755290384693 15.085775962445181 0 0 0
1403 3 33.01624758320293 13.043418099382599 17.608714697394955 0 0 0
1404 1 33.291699699521544 12.24388341294597 17.121847698492196 0 0 0
3852 1 37.997631136599274 17.487069207715287 17.997446747435845 0 0 0
3848 2 38.51521973980006 15.651897178466555 18.221836476344333 0 0 0
3567 1 37.02154913996834 14.500019840092055 12.295341379744242 0 0 0
3571 1 34.544354493415646 14.474885554665503 14.199841601266673 0 0 0
3568 1 35.85424982516877 15.723887429381682 12.52301484660042 0 0 0
3566 2 35.939319810888776 14.63685976284819 12.501098290340433 0 0 0
3569 2 35.51046743908357 14.133620367665552 13.880783147521315 0 0 0
3573 1 36.20276283348572 12.337610092411847 13.585532568882313 0 0 0
1401 1 34.958528006559725 13.989537033811883 17.75070914704438 0 0 0
3570 1 36.247489242980066 14.500835884786486 14.608902722128029 0 0 0
557 3 33.36723402123061 12.052263192981577 12.621679021105239 0 0 0
558 1 34.172523158457956 12.273644084145786 13.145070484857122 0 0 0
1400 2 34.21896590688632 13.374400165325673 18.407207039017177 0 0 0
3572 3 35.437596519539255 12.742778218265716 14.04561377939768 0 0 0
312 1 34.27153859703834 16.278643101233527 18.198987975133708 0 0 0
314 3 33.590388473350394 18.0656580662986 18.54689535660508 0 0 0
311 2 34.391620156195174 17.248486617621825 17.76265004632825 0 0 0
1284 1 37.480062056404016 18.88969580352259 14.359632682923413 0 0 0
3850 1 38.15410746196057 15.60030054890273 17.15580419205583 0 0 0
315 1 34.03087833979949 18.341120195481988 19.392596287826734 0 0 0
3851 3 37.95341918875433 16.911333710495708 18.75376089966049 0 0 0
313 1 35.44356322737053 17.456856429261652 17.793925603804624 0 1 0
5355 1 32.679703949034085 19.376651765634485 17.84491617507258 0 0 0
1727 3 33.167301034809135 19.801784715047187 12.806265834732258 0 0 0
1722 1 32.366631659373034 17.600901847208878 14.09831164903695 0 0 0
310 1 34.15174702764769 16.49351460717482 15.623201937736496 0 0 0
308 2 33.94362558723405 17.299365660441758 16.31429583452369 0 0 0
309 1 32.80839657995391 17.369187151189877 16.386406196277687 0 0 0
1728 1 32.52831287667046 19.77411910793612 13.542419381456087 0 0 0
307 1 34.22245097169706 18.226394753143328 15.845148249879536 0 0 0
5354 3 31.900641404643196 19.700433000213884 17.339589563210257 0 0 0
1402 1 34.835826371018776 12.474105065310958 18.614125118997435 0 0 0
3849 1 39.65548335245975 15.757279404285422 18.20577229147354 0 0 0
5349 1 30.711233957098724 19.330603664360154 19.925951981123276 0 0 0
1399 1 33.02812187563147 14.758049746321785 19.71179131741937 0 0 0
1397 2 33.75763227490682 13.971240350134039 19.72002078668855 0 0 0
1830 1 40.2269712367006 11.954293550313988 20.2503623025493 -1 0 0
3845 2 38.249477941005225 14.579061146363125 19.29347574948537 0 0 0
3844 1 38.814374285993985 13.708051617834158 19.06282730817921 0 0 0
3846 1 37.172209666591854 14.28699205145022 19.42106434571821 0 0 0
5347 1 32.31835160287229 20.299868557070386 19.96416804864077 0 0 0
1502 3 31.258402530755347 19.703332400597883 14.774759806408419 0 0 0
5348 2 31.278022572817505 20.241203607594077 19.673147567363937 0 0 0
6127 1 30.72926601507714 10.663305305648342 18.775736175824086 0 0 0
6126 1 30.94053600384097 12.027500052763557 19.88152620604965 0 0 0
3847 1 38.65463091536899 14.963159247990626 20.267597587636633 0 0 0
1398 1 33.31985304815283 13.1247065590976 20.24004657336615 0 0 0
1396 1 34.60208581093147 14.220351611106393 20.335562523242537 0 0 0
4806 1 6.078620152994714 29.175088668204392 10.802960310816005 0 0 0
4805 3 5.657389607361794 28.334854895606867 10.719470376370172 0 0 0
969 1 1.0335682822807537 26.270813916781208 10.209532181230701 0 0 0
1510 1 7.085043012071414 20.87585822811607 14.686473998145523 0 0 0
1509 1 7.731428286090744 20.57447839402018 16.304113047422288 0 0 0
1508 2 6.910985188245826 20.946039402174407 15.772188088210992 0 0 0
59 2 0.3580574035384334 20.510828970571136 14.667481211856801 1 0 0
3414 1 5.763900424516822 23.09492774702015 11.631935856013083 0 0 0
1504 1 4.779010247601627 20.584968182445536 15.740740339004635 0 0 0
1072 1 9.323290192073951 21.787756976969405 17.993964643814685 0 0 0
3415 1 6.611586393756324 24.64296847818624 11.56472794188148 0 0 0
3413 2 6.315223731554472 23.881673925409668 12.255706415332211 0 0 0
4086 1 4.454478849631561 27.74361578797037 11.98671885234389 0 0 0
4083 1 5.744579481389173 28.141423923274992 13.971742628516113 0 0 0
4084 1 5.934803144771591 26.69219746405821 12.932807836508191 0 0 0
4078 1 4.289773631327501 26.46105827680044 15.554889961508279 0 0 0
4081 1 4.593453522906272 25.302046867198225 14.353639052397932 0 0 0
1511 3 6.508097767968146 22.296806297339547 16.1327805774664 0 0 0
1512 1 7.027696014233986 22.84136166374831 15.48375756027351 0 0 0
4082 2 5.239238095374508 27.23547947023207 13.629064061216926 0 0 0
4085 3 4.082421654740295 27.59119483571791 12.880911741412294 0 0 0
5085 1 0.9270469924762584 20.790956872808525 10.306548908908841 0 0 0
4079 2 4.992838869299397 26.20896985815557 14.721348373063515 0 0 0
4080 1 5.955813147389736 26.050122060936896 15.190225461130229 0 0 0
5006 2 3.9280252689619735 22.225057593166007 19.652886528375124 0 0 0
5007 1 3.05692568803666 21.520883470934255 19.766340945006405 0 0 0
5010 1 5.504237269263708 21.05755807116125 18.74077689600416 0 0 0
4122 1 3.1496164094328583 28.709485640569074 13.903529100735923 0 0 0
4120 1 0.5694873151801814 29.371881916798934 15.167963695870169 0 0 0
4121 3 2.5864633458208868 29.028439782655465 14.659438491908357 0 0 0
5081 2 2.1327059921287965 22.260167830112692 10.421266491159605 0 0 0
4119 1 0.9496074346173315 29.792329634244275 13.622847292995214 0 0 0
4118 2 1.2251690908927078 28.992374264061024 14.337821730441355 0 0 0
4117 1 1.2908518915555125 27.359455068253887 13.149866427881044 0 0 1
4115 2 0.7626840543585276 27.6280134072417 14.055304843792333 0 0 1
5011 1 4.530831347625289 22.129235242481435 17.624070019330023 0 0 0
4116 1 1.091541967560515 26.952230644604096 14.832043571550424 0 0 1
5008 1 3.487490932728639 23.298493000146895 19.519554151011846 0 0 0
5009 2 5.019623141630371 22.03056358330211 18.589117501762008 0 0 0
5012 3 6.040248036843074 23.102241964138162 18.647772033152766 0 0 0
5013 1 6.43825985927088 22.977990037638925 17.731451287448643 0 0 0
5083 1 2.7968564127155258 21.498900000417613 10.749812737303884 0 0 0
3412 1 5.556453908699593 24.289320500094 13.013910568941014 0 0 0
3417 1 7.06265681041047 22.236999323898953 13.19690769309404 0 0 0
3416 2 7.505134711950562 23.269508820774945 12.978653303818295 0 0 0
3418 1 8.358607925779872 23.163863547033134 12.28890580228003 0 0 0
3419 3 7.775842420992996 23.954340503200115 14.082952931621753 0 0 0
1901 2 6.753648807070983 27.365508392524852 18.170691583281297 0 0 0
1903 1 7.278287405677391 28.06518795505454 18.821396944948987 0 0 0
1902 1 5.95388477205789 27.757581436171225 17.546387452830093 0 0 0
1900 1 6.3591724576474 26.658525557425264 18.869867645895905 0 0 0
1904 2 7.6780128435543515 26.606989089172416 17.278981633962317 0 0 0
3420 1 8.692307771805886 23.909018181551595 14.41606608418396 0 0 0
1908 1 8.819555824028757 25.938839053681278 18.744235870620013 0 0 0
2115 1 3.2422624600417995 30.500858836634745 14.796244826795833 1 0 0
4556 2 4.068143342867268 29.777646237237253 19.832716110732015 1 0 0
1905 1 7.250937091902471 25.581763833009408 17.05346060737192 0 0 0
1907 3 8.903408563482838 26.303109605254104 17.867745025571026 0 0 0
4555 1 4.805493500779496 29.54734639906341 19.01839079654984 1 0 0
1906 1 7.9236435384849955 27.20448275383029 16.425085461089502 0 0 0
4557 1 3.48932292280252 28.98292746515667 20.22568630784106 1 0 0
2095 1 0.041300305009285804 23.899818268702056 16.55715620813206 1 0 0
2094 1 0.11167269047187425 24.680393257686834 18.191313831542352 1 0 0
5640 1 9.940701529644013 25.330022266420894 13.676992309923504 0 0 0
3064 1 8.900597231272727 29.561175911823117 12.389354944730401 0 -1 0
2089 1 1.9445338940633727 25.452326410079376 16.843838252787606 1 0 0
2090 2 2.0079549194681454 24.476994108841517 17.24152500543282 1 0 0
2093 2 0.6272395771472079 23.95433770232476 17.524231355818728 1 0 0
2359 1 0.3772997277496661 28.564755257487075 19.724791718549262 0 0 0
5077 1 0.9439802035058396 22.446176628624368 12.288372709580136 0 0 0
5080 1 2.3539289916068906 23.615469829816664 12.16032805463493 0 0 0
2091 1 2.5503164649582613 23.786756495056885 16.640538824846757 1 0 0
5079 1 0.7802795974565787 23.76774775958099 11.232971871753078 0 0 0
5078 2 1.5188597431189672 23.067051660631428 11.65625056433618 0 0 0
2092 1 2.5297272146338643 24.59368982673137 18.18564023072704 1 0 0
60 1 0.588570738495882 21.488590390488532 14.215486770281927 1 0 0
2096 3 0.6717796847237184 22.649380382274412 18.03533419035533 1 0 0
2097 1 0.22536998015865745 21.98212325778754 17.489591131015057 1 0 0
4476 1 2.3983322894271284 29.68837297566013 11.105212928261816 1 -1 0
723 1 6.842683213914738 30.250081223062026 17.942681823667307 0 0 0
721 1 7.713131566440581 30.393139502621406 19.452526041442443 0 0 0
4561 1 2.5102003529620194 30.548849127481287 18.639248738986577 1 0 0
1252 1 13.430843907534188 22.233147078557973 10.56310584751318 0 0 0
1254 1 13.583165347987638 20.405723133660057 10.820237282707057 0 0 0
3052 1 19.504873414670755 21.992514976274947 10.466264853478329 0 0 0
4105 1 15.599730451806483 25.157183381709203 11.27216364456926 0 0 0
4106 2 14.823490498046114 25.446342055002855 10.653585099998514 0 0 0
4108 1 14.289671207764941 26.265093973750545 11.167953817944644 0 0 0
1074 1 10.968872439866367 21.63987333195662 17.047766924031677 0 0 0
1079 3 10.781352282077096 20.464633265589953 19.603479259650623 0 0 0
1251 1 10.60063791469369 26.090732291034424 17.047233949290973 0 0 0
1075 1 10.288504692824798 23.183896370326416 17.681705822105993 0 0 0
1073 2 10.387122126167593 22.087361545509108 17.90988511142701 0 0 0
1246 1 12.037138484290477 26.859874874103305 19.06267143154034 0 0 0
1718 3 17.998126523082234 20.49026658448169 16.022875198275507 0 0 0
3054 1 19.35997228713309 20.99671384724152 11.875091158407885 0 0 0
1250 3 11.368856101226774 25.536168366467663 16.786040831704952 0 0 0
4107 1 14.075711560837133 24.621607214774777 10.665334719142155 0 0 0
2230 1 14.884367314985703 22.034600979054275 17.630972051894375 0 0 0
3053 2 18.790657399432778 21.275662706398986 11.002417599050487 0 0 0
5638 1 12.265578983203666 25.789992017960934 14.406485013100271 0 0 0
5635 1 12.101081038001599 26.14589900330681 12.710919321584072 0 0 0
5636 2 12.084211358740724 25.318466155352386 13.461514571620018 0 0 0
5637 1 12.879227148019643 24.667776119400624 13.217028429858447 0 0 0
5642 3 10.787302638063236 23.75222126782387 14.722008712485623 0 0 0
3055 1 18.006194697843387 21.924478106166983 11.387964861299155 0 0 0
2228 2 15.224951888883227 21.34239906901726 18.43014144093233 0 0 0
1076 2 11.064983983791427 21.81535771479568 19.23769868778023 0 0 0
5643 1 11.08231767140683 24.35097540735076 15.522253459457492 0 0 0
1249 1 13.369805244134712 25.53480910124797 16.849679645223794 0 0 0
5639 2 10.73971604442779 24.639745068776932 13.543967592017147 0 0 0
4626 1 18.477525851651436 22.01006530411407 15.01753351532415 0 0 0
2229 1 14.330130959657676 21.04885664553683 18.905598581389338 0 0 0
2227 1 16.962344124604233 22.709190221110124 18.791808416797362 0 0 0
1247 2 12.597242116229422 26.282726337993623 16.9290619914502 0 0 0
1248 1 12.771460225948697 26.959214509898903 16.064850282749642 0 0 0
1077 1 12.138983598645494 21.813417285967137 19.112587936244008 0 0 0
4625 3 18.464155254189127 22.530857995697243 14.235223792953555 0 0 0
4622 2 19.812149959199505 22.733984351306056 13.814217330244349 0 0 0
2224 1 16.69483059349517 21.57883036819747 20.032691172492694 0 0 0
2225 2 16.149199733989498 22.22329353568099 19.2889762861272 0 0 0
782 3 11.930908386027292 20.98553413415945 13.631096927046256 0 0 0
783 1 11.474729342116403 21.76883633660333 13.987605521306719 0 0 0
3825 1 16.475149253093466 23.506051601051286 13.576304534499622 0 0 0
2226 1 15.455982260080159 22.878095657602923 19.758611363473882 0 0 0
6247 1 17.75953551182523 26.031162672855285 12.296605249115725 0 0 0
3824 3 15.787843658017582 23.257212672650123 12.911142973323829 0 0 0
3822 1 15.75270066928226 21.339341843931585 13.778865909155346 0 0 0
3820 1 15.419161843774996 22.796542978453292 15.626107852813014 0 0 0
3823 1 14.329074601127537 21.870545702753702 12.875263345827394 0 0 0
3819 1 13.772846522185 23.24296814924155 14.91950331116428 0 0 0
3821 2 15.076139387162314 22.19263750888875 13.55262296265897 0 0 0
6249 1 19.387152548127954 26.589789770046067 12.164790319583993 0 0 0
5641 1 10.515044538639563 24.0799966783945 12.706509675029555 0 0 0
6253 1 17.050009086565886 28.042613897595977 10.969514772551246 0 0 0
6248 2 18.50829563932526 26.555300913719336 11.662028149631492 0 0 0
6251 2 18.07217452548956 27.977735117922663 11.4746182721888 0 0 0
6254 3 18.096368163690865 28.829627422958154 12.65031730148269 0 0 0
6252 1 18.834102895093366 28.40668053862722 10.789005721798834 0 0 0
6250 1 18.661128907842862 25.920981929077232 10.790861647255484 0 0 0
1245 1 13.665032313293471 27.24334736494242 18.59992912950378 0 0 0
1244 2 12.679510979440447 27.191065864472005 18.19581274720752 0 0 0
1243 1 12.301355766110746 28.216304167379707 17.976813348627694 0 0 0
1021 1 16.82585621442328 25.67930793354595 17.856686412026104 0 0 0
1020 1 17.883051634233144 24.90717923561594 19.008205930436993 0 0 0
1019 2 17.866315982512507 25.757022438213923 18.316133564114512 0 0 0
1018 1 17.859948805655584 26.71174452389438 18.792395620633656 0 0 0
1022 2 19.007824874356192 25.64865373826967 17.38123573193094 0 0 0
1023 1 18.824226361658194 24.784392107166706 16.745352332803492 0 0 0
1024 1 18.98831441903003 26.55010090770206 16.669167447501874 0 0 0
3818 2 14.577284814615274 22.532015985891096 14.929742047347196 0 0 0
3817 1 14.220890972202982 21.57431824972133 15.230992430246918 0 0 0
3983 2 20.155620522800294 22.732148119287256 19.520023349585177 0 0 0
6105 1 15.523775482865048 26.775103174525952 16.02325754917673 0 0 0
6107 2 15.301676949755715 28.310711994099787 14.683782209506717 0 0 0
6108 1 14.192435659504243 28.344760814124985 14.868147977006222 0 0 0
3985 1 19.129749739197454 22.750383131490175 19.421146935734914 0 0 0
6104 2 15.680926236715658 26.8462685223312 14.908573037821178 0 0 0
6109 1 15.829517663711982 28.964346487380798 15.455920236889257 0 0 0
6003 1 19.657302072608957 29.14462761201125 13.477636231666072 0 0 0
6255 1 17.313721993697506 28.79295529479501 13.146643549668632 0 0 0
6002 3 20.310561567606413 29.38840997266076 14.174938713546101 0 0 0
6110 3 15.671734745079807 28.85415719688274 13.41019695213651 0 0 0
6106 1 16.74520195501589 26.73103384433839 14.666919117875645 0 0 0
6111 1 14.942100463477548 28.768145441077067 12.762403224120511 0 0 0
5997 1 19.826494190196563 29.4051534500939 17.45598014302986 0 0 0
6103 1 15.085713724479662 26.078595437918015 14.40545343352773 0 0 0
5999 2 19.57972651145895 29.356027961764347 15.355727881548486 0 0 0
5812 1 11.845854065254606 29.93638927000885 11.185517009234056 0 -1 0
5813 3 13.534860491364446 28.767923543925388 11.595745869595676 0 0 0
5814 1 13.892192310229824 29.142420121076473 10.825312982173342 0 0 0
5811 1 11.976048393452984 29.170683456619468 12.772795658651745 0 -1 0
5810 2 12.51678011906064 29.685927414469624 12.004165622505317 0 0 0
2234 2 16.403373413044662 29.742821427542697 19.42539658630479 0 0 0
1078 1 10.824136065692935 22.502887386142884 20.03373122807568 0 0 0
2236 1 16.121557384765747 28.6672877112398 19.35662602858222 0 0 0
1025 3 20.254749470870532 25.390611011527156 18.164505037853324 0 0 0
4623 1 19.69359528888088 23.177145541412624 12.815346933818201 0 0 0
3987 1 20.38092626595373 24.709813685429303 19.700126569532525 0 0 0
4618 1 20.093241224816666 24.641972621260063 14.914723608573095 0 0 0
6001 1 18.904954537170394 30.28233048521343 15.4331041999734 0 0 0
2238 1 16.375754763651948 30.14988699442443 17.301397069595836 0 0 0
6000 1 18.801246352882508 28.530962919602956 15.458035795932183 0 0 0
2239 1 14.718567875740199 30.19883386980938 18.200883500724604 0 0 0
2237 2 15.843615390241048 30.44948618348802 18.213085293985994 0 0 0
2235 1 17.507975122245057 29.759326226974693 19.507398401343607 0 0 0
2121 1 10.828647852719444 26.067590991233292 20.383469302080535 0 0 0
2377 1 12.745950334345663 29.42892769525723 20.252818258031503 0 0 0
247 1 19.571721630654167 27.34618113639881 19.981508025340382 0 0 0
2233 1 16.03230282886484 30.12643552345195 20.386415026838677 0 0 0
5827 1 22.249340406294362 20.515237032239533 10.257497806510889 0 0 0
3982 1 20.487702222526764 20.61437197698289 19.38647622284358 0 0 0
5826 1 22.713036681220885 20.450825800549943 12.031768388212589 0 0 0
5431 1 26.46713861664985 20.963628033288938 20.05428460374995 0 0 0
5430 1 27.814112020521424 20.71179119680476 18.888142455412297 0 0 0
5824 1 23.92700081853655 20.590861835393746 10.715105176174927 0 0 0
1498 1 28.204585409115953 21.236303167518198 14.701811552753862 0 0 0
1496 2 29.017310566252043 20.620235906414404 15.194876673873868 0 0 0
1495 1 29.393700620827104 21.27711041798386 15.982384020661021 0 0 0
4421 2 24.40656731262015 21.025985588212162 15.623341540785466 0 0 0
4424 2 23.458065142727783 21.580587952177286 14.61207216037524 0 0 0
4425 1 23.10335183458535 20.803528368625503 13.817692381639574 0 0 0
4426 1 22.589738669678443 21.87980210303984 15.14738681799324 0 0 0
3298 1 20.73428965429161 24.508819781523986 10.405041099700188 0 0 0
4624 1 20.4559203361041 21.846813134344824 13.651076500969364 0 0 0
3984 1 20.577198799245235 22.868449166273265 18.52481701692869 0 0 0
5995 1 20.980982832861812 28.385233271892098 16.621197196577018 0 0 0
5996 2 20.448395357023287 29.344452720851532 16.56702718498262 0 0 0
5998 1 21.168520222969697 30.184299958620592 16.59471229295139 0 0 0
1501 1 30.321832607069652 21.27695654042761 13.73320384966412 0 0 0
3980 2 20.69509762085757 21.4373422918964 20.01795798976167 0 0 0
3981 1 21.78162774501254 21.57733197985404 20.119531801328122 0 0 0
3986 3 20.500782427458418 23.940213280077785 20.310059231404836 0 0 0
1026 1 21.119436668972035 25.48479521153532 17.61714573173503 0 0 0
4621 1 20.476976931751224 23.225253015075246 15.787028431817056 0 0 0
4194 1 21.815068928704004 28.498149395255084 14.031670953505241 0 -1 0
4192 1 23.09535956623158 26.428139373408445 12.7865883122951 0 0 0
4619 2 20.528935745497844 23.628815416047193 14.806778747073903 0 0 0
4191 1 21.849257165632306 27.61908261714469 12.273427922757607 0 0 0
4190 2 22.775465425089703 27.474939934593326 12.869143980765156 0 0 0
3301 1 23.11793414808287 22.598464947589846 10.421017677336799 0 0 0
1485 1 22.116278286817405 26.497609735728172 15.443753600389737 0 0 0
1484 3 22.230066624463348 25.94239070046728 16.275092675740222 0 0 0
4193 3 22.421428875445535 27.758473886199813 14.229131846479762 0 0 0
1483 1 23.732595570824618 24.94780328571544 15.332002511064887 0 0 0
1481 2 23.56054123937195 25.500417640550246 16.29359030823235 0 0 0
4188 1 24.104534609338824 27.963015104652115 11.30549720069431 0 0 0
4186 1 23.699999173228207 29.459875975351455 12.268804497742677 0 0 0
4189 1 24.67679701658142 28.392608576681095 13.03002428187543 0 0 0
4187 2 23.86699141303504 28.315332964332224 12.310662561438319 0 0 0
4620 1 21.586657759058998 23.80884759975868 14.523738436774595 0 0 0
3302 3 22.70777233466275 24.05679100578262 11.94789536904255 0 0 0
1482 1 24.194391060351418 26.37205567152615 16.33620718711659 0 0 0
3300 1 21.599288612406884 22.494911456713396 11.357971159370676 0 0 0
3299 2 22.286764252988707 23.180851325964973 10.921751892707887 0 0 0
3303 1 23.23050558349063 23.576642553975514 12.673951694277795 0 0 0
5793 1 26.389548931467846 21.199967231450593 11.350646215861639 0 0 0
5788 1 27.143818660774254 24.085584081364974 10.907948015236185 0 0 0
5790 1 25.541498929147952 23.367649550717655 10.464056376746086 0 0 0
5794 1 28.01212431911884 21.77871615709185 11.746511756711287 0 0 0
4420 1 24.560419032040613 21.7322350306205 16.406007146048687 0 0 0
4422 1 25.318913880999098 20.65771090214836 15.131126210116555 0 0 0
1480 1 23.264448048301972 25.104938679832397 18.363034275228213 0 0 0
5792 2 26.95585946314127 22.032688992481532 11.642552253359154 0 0 0
5789 2 26.613543115404635 23.178497244407705 10.61256420910841 0 0 0
4428 1 24.920216797634602 22.569987341375505 13.604390177106865 0 0 0
4427 3 23.974496122470978 22.733001659814263 13.949940203474577 0 0 0
5795 3 26.446497086749883 22.456775974173087 12.949869891757633 0 0 0
5796 1 27.011755140027763 23.159793725507164 13.32874724673214 0 0 0
4022 3 27.95699091135722 24.529393155013285 13.656382338692278 0 0 0
1478 2 23.701008164107886 24.568563687446055 17.497616747057872 0 0 0
1477 1 24.74994369085951 24.173152483575056 17.733134049487784 0 0 0
5310 1 23.592338872306314 29.004679610235314 15.272312893712114 0 0 0
4023 1 27.71611424853134 24.58136913164441 14.554954170169129 0 0 0
1479 1 23.030346001511553 23.720888533495668 17.26804328075412 0 0 0
5309 3 24.362213818841305 29.53563669099811 15.028895862843584 0 0 0
5597 3 27.048876383374193 24.777109648786148 16.3656217698798 0 0 0
5598 1 27.569608727695343 25.60814508010708 16.743193514255108 0 0 0
5590 1 26.64689082069841 23.76171977290843 18.96526180324051 0 0 0
1294 1 28.003559263689596 28.914760281965865 18.2640555335017 0 0 0
1296 1 28.995044230957316 27.257565749733146 17.4190438017907 0 0 0
1295 3 28.145438761327515 26.901440350808553 17.653116096817442 0 0 0
1293 1 26.47477200539675 28.137059432646733 17.50301218819311 0 0 0
1292 2 27.37227685756633 28.001900331070885 18.15827874826385 0 0 0
4015 1 29.53626215301218 26.498245017483903 14.594585154908826 0 0 0
1290 1 26.167927307795424 28.170744012194316 20.13315272515248 0 0 0
1291 1 27.659522616378947 27.11731992384771 20.21760735072767 0 0 0
1289 2 26.819662678471985 27.493305302806434 19.586981019653642 0 0 0
5591 2 27.56881609841471 23.68081693236688 18.40039728323762 0 0 0
5592 1 28.23357270486613 24.420811886061617 18.63840446182256 0 0 0
5593 1 28.043309337568818 22.745563330141 18.726737172284963 0 0 0
3869 3 30.583760297512743 27.925634148219437 17.00064373469314 0 0 0
3870 1 30.511055594970404 28.624766626240426 16.307202357547805 0 0 0
1288 1 26.27944664961875 26.698150153849767 19.355327255998855 0 0 0
4567 1 27.6746134739383 29.587901655364714 15.947816054153492 -1 0 0
4018 1 30.0691558768689 25.01877006466583 15.531992216538816 0 0 0
4016 2 30.04216216908919 25.493420158966142 14.5180918714621 0 0 0
5594 2 27.563142979255517 23.5806493470482 16.88300990062752 0 0 0
5595 1 28.609223478798818 23.43610126998545 16.487072106519257 0 0 0
3868 1 30.18169438418186 29.10653531170237 18.7050005845115 0 0 0
5302 1 25.245184164152587 30.0039892963816 17.569734366891755 0 0 0
4566 1 26.766956545744197 29.420261027832247 14.420764582649634 -1 0 0
4565 2 27.7248752597812 29.297852965899 14.914664378172933 -1 0 0
4020 1 29.678031326230613 24.84492488086714 12.545350614507628 0 0 0
4019 2 29.33518038838481 24.52996858607697 13.545432795063672 0 0 0
4021 1 29.77750674596215 23.504107117309513 13.721290459071705 0 0 0
5596 1 26.868252681761454 22.83228537635139 16.542343322867637 0 0 0
4564 1 28.098098803441868 28.28237442254813 14.820282814939226 -1 0 0
4571 3 30.027151025438137 29.786743300866917 14.860491039948402 -1 0 0
6028 1 26.421839374094713 30.138347642017138 19.696867846613536 0 0 0
2212 1 30.504958888894286 22.695997257070204 11.242142720347097 0 0 0
5304 1 23.52299517189799 30.09407875417217 17.721789069406576 0 0 0
4569 1 28.96301745120822 29.631489463545208 13.170513763410165 -1 0 0
4568 2 28.79176155218053 30.050697137958377 14.141354950158052 -1 0 0
2206 1 32.41742059307199 24.158700907514405 11.42912540883112 0 0 0
1164 1 35.91332237123416 20.750782642922566 14.877750539464929 0 0 0
4009 1 37.74161700005448 20.608893207063616 17.8042374863416 0 0 0
4006 1 36.732481023738174 20.586613676786055 19.204245345425676 0 0 0
4007 2 37.34849015344182 21.27665532355275 18.610066355350813 0 0 0
4008 1 38.232192412183565 21.654883594407085 19.195231175357268 0 0 0
2364 1 39.266227079558284 30.364607272896546 19.1934661040794 0 0 0
4114 1 40.5012704612123 27.501882151536034 13.827827821192944 -1 0 1
2361 1 39.492932157239494 27.94023629603834 19.72614846702403 0 0 0
2360 2 40.148867738836046 28.64729652356488 20.23589927095084 0 0 0
5353 1 31.22969669928073 21.623313695478963 18.066954745207788 0 0 0
3867 1 31.227142730001486 27.853098720362098 18.94589837487856 0 0 0
1163 2 36.03567131945048 21.331920042983462 13.921194429040991 0 0 0
1168 1 36.659135784382386 23.482894118846232 14.064401875465512 0 0 0
5351 2 31.100958106909903 20.562525746565427 18.16648754685866 0 0 0
1165 1 36.25560774015388 20.552864684570775 13.163484227589974 0 0 0
1162 1 35.05723846970632 21.735037692069945 13.777458352329331 0 0 0
1166 2 37.126658700617014 22.459512577321007 14.0690277065437 0 0 0
5350 1 30.73108057289308 20.945174412587647 20.31243234663544 0 0 0
62 3 40.15154706572259 20.633123663662097 15.705327328586828 0 0 0
63 1 39.48169620665876 21.269854930185193 15.276524825641845 0 0 0
1169 3 38.02848746427347 22.179473078928336 15.114375626033167 0 0 0
3865 1 33.1202000098976 28.659440965309468 17.81118395120295 0 0 0
3866 2 30.972130019111756 28.5977652829561 18.20601540974666 0 0 0
4011 1 35.71980701697404 22.154787139164355 17.562190576345518 0 0 0
2363 2 39.507342402875004 30.030822136118523 20.197995958505633 0 0 0
4017 1 31.06202327374108 25.551604471309368 14.10766192759485 0 0 0
2762 3 38.07566924335873 24.86772882739695 10.297334730826721 -1 0 0
2757 1 39.450067466975305 24.465700789003595 12.72171607716684 -1 0 0
2755 1 39.98486847108081 26.03993543914191 12.045029573428952 -1 0 0
2759 2 37.92817216174388 25.528886549136672 11.51337323957381 -1 0 0
2760 1 37.080077029809416 25.04808106445186 12.009189905976063 -1 0 0
2756 2 39.13911586556943 25.511671963158573 12.444577405281558 -1 0 0
2758 1 39.04828125063062 26.03385763608938 13.428328746634623 -1 0 0
2761 1 37.53620239013834 26.57055232116242 11.283316112206467 -1 0 0
1167 1 37.627073871228966 22.488265884407475 13.04157926054943 0 0 0
2211 1 31.638004634950583 21.395962984070547 11.641790523139736 0 0 0
2210 2 31.515586204234516 22.246687164928954 11.094390709575164 0 0 0
2208 1 33.46336761686983 22.78291971352999 11.364456507104384 0 0 0
1170 1 37.57983414944913 22.48093950742481 15.96108628613525 0 0 0
2207 2 32.5086089865551 23.14558689197066 11.656956931059037 0 0 0
2209 1 32.35866264335094 22.976483663635946 12.758916029140277 0 0 0
4014 1 36.84123683545098 24.084583346497425 17.12818060071257 0 0 0
4013 3 37.386668264201674 23.245180332270376 17.307716420206088 0 0 0
5439 1 37.08934723842911 28.17562189612468 17.83296134848638 0 0 0
5437 1 38.758060536973446 28.359617632538686 16.98379222749657 0 0 0
5440 1 37.21600842065873 28.213844243597624 16.01420751467838 0 0 0
5442 1 38.57931641131732 26.397613369628115 15.848258383473008 0 0 0
5443 1 38.50208526710188 25.830070091197246 17.528291604657895 0 0 0
5441 2 37.98127601544117 26.410406983952537 16.75524980921647 0 0 0
5438 2 37.725737556853154 27.87256655998272 16.9741807148416 0 0 0
5444 3 36.78558104970246 25.661881724920747 16.388750537763112 0 0 0
5445 1 36.029984298094945 26.137416038440847 16.781137886399275 0 0 0
1382 2 33.917235564577815 24.381014706193337 18.38013247511371 0 0 0
1385 3 34.55828535502681 25.60485892461433 18.14455906729506 0 0 0
1381 1 31.794290154255048 23.71201737072193 18.79438766167734 0 0 0
5653 1 34.46124257718867 25.742832765144453 14.263689752854699 0 0 0
5655 1 35.80962913712727 26.471672765620102 13.546686113328967 0 0 0
5656 1 35.254392292129054 24.873256015986296 12.975214344551631 -1 0 0
5654 2 34.921626029133165 25.858138309341157 13.325069161827239 -1 0 0
1379 2 32.41390782201945 24.60068452841603 18.817728833320874 0 0 0
1378 1 32.03293118839439 25.257878097117388 18.01310518350374 0 0 0
1380 1 32.270098817034125 25.144804030087386 19.72015809860897 0 0 0
1383 1 34.399103991090335 23.757774514560058 19.15814206434506 0 0 0
1386 1 34.4085082946351 26.180421172370924 18.92129742671311 0 0 0
4010 2 36.576807719106895 22.43501907110285 18.183481217743022 0 0 0
3863 2 32.26478982346678 29.378882314032193 17.977582752088605 0 0 0
5659 1 33.00866553504098 26.787198156360333 12.569450107701838 0 0 0
5657 2 34.10346700221323 26.64926721745663 12.339444374091673 0 0 0
5658 1 34.08293029393852 26.20988843706093 11.39217406804099 0 0 0
5660 3 34.585805126620365 27.950567716062505 12.2610670829376 0 0 0
5661 1 35.164124257501285 28.14495255262701 11.50119646420424 0 0 0
4012 1 36.23645469252914 23.00611880657706 19.06760060255895 0 0 0
3862 1 32.54760109751259 29.924849917917438 18.904951539991448 0 0 0
4250 2 37.700846621918835 29.998684362515945 10.87910023238073 0 0 0
4252 1 38.71450339291409 30.268810843397535 10.898958227109507 0 0 0
6237 1 35.33673838159046 29.138323244078357 13.656929083695454 0 0 0
4249 1 37.499553248295584 29.505844344384727 11.825031644471432 0 0 0
1384 1 33.91784052362668 23.798756887634223 17.45977276484035 0 0 0
3864 1 32.31678322400672 30.08223528597903 17.12620828607304 0 0 0
6236 3 35.959308719549206 29.864491174844037 13.793873892705149 0 0 0
2679 1 36.69875035732205 30.58968239669083 19.800182375594026 0 0 0
5467 1 37.26518044535645 25.788605618293207 19.79777188086727 0 0 0
4572 1 30.791975265022046 30.3260252117728 14.459496334136352 -1 0 0
6234 1 35.725518300694254 29.444949654014636 15.856489786935503 0 0 0
6229 1 38.06447969835045 30.37544147759319 15.206948342177542 0 0 0
6233 2 35.914686654837006 30.272936385211093 15.21637644308429 0 0 0
2681 3 34.95496392733734 29.74851891781664 20.164341193340324 0 0 0
5472 1 35.32153130078027 28.135339295084602 20.34764283383645 0 0 0
5471 3 34.90647473896065 27.265675264671632 20.347383288254566 0 0 0
287 3 4.610142664461975 38.91131133591516 10.200988184276873 0 -1 0
4407 1 5.850962208070027 40.284771799535875 18.279185629407035 1 0 0
1648 1 1.5092696869176168 38.19059451135289 13.625302499080577 1 0 0
1653 1 1.5726307466918148 40.586178119733184 12.848306934046713 1 0 0
1652 2 2.1680261512494616 39.81372032925533 12.35339968798579 1 0 0
1654 1 3.111431240774648 39.942844004350015 12.803188305464811 1 0 0
3804 1 0.44275918429353234 40.3889745945231 18.931121402813336 1 0 0
3068 3 6.708015988692593 30.743560950147472 11.43922063915142 0 -1 0
3061 1 8.21191792611925 30.77954498918592 13.528678249047136 0 -1 0
3062 2 8.768637653752364 30.633878612369156 12.591182927909655 0 -1 0
3063 1 9.769266585586315 30.985416455225604 12.708203530527546 0 0 0
3065 2 8.035399427231344 31.148102655346417 11.402997282809904 0 -1 0
3067 1 8.551744276296978 30.680727252069936 10.574098048883009 0 -1 0
3069 1 6.208375106478954 31.423892074875667 10.965190088391264 0 -1 0
1656 1 1.5710079770756424 39.85398532679884 10.476416679135733 1 0 0
4477 1 1.7431316829117973 31.212607382533317 10.350955840698193 1 0 0
1651 1 0.7929992131877402 38.22579944034791 11.939670995876055 1 0 0
1650 1 2.4249160409578017 37.656705804953646 12.24665554229607 1 0 0
1649 2 1.6867577987737312 38.39522456889299 12.605832421277796 1 0 0
2112 1 5.575803118176377 30.724880247284112 15.363214068980767 1 0 0
4559 2 3.1959532196172487 30.917697946771693 19.44690726369622 1 0 0
4481 3 4.343345914128512 31.47155218186855 10.226512459741997 1 0 0
1655 3 2.3230935826882586 40.19956298538005 10.945288119614794 1 0 0
3616 1 4.965969066017398 38.21147794881375 12.909426084558827 1 0 0
2113 1 4.50974410396778 31.156160881586395 16.69298881308923 1 0 0
722 2 7.413318433276168 30.937616623174307 18.596897744702126 0 0 0
2111 2 4.7709996387390925 31.43306649214413 15.68599404449446 1 0 0
727 1 8.009570526965042 32.29451647856889 17.052753232288826 0 0 0
725 2 8.463815853188354 31.77522709202905 17.89530273758312 0 0 0
726 1 9.238335873057101 31.12110831453174 17.527198006650554 0 0 0
724 1 6.666593530442691 31.64966000943354 18.874236318097296 0 0 0
3066 1 8.068359866291038 32.26869915840879 11.379229157328178 0 -1 0
4474 1 1.7043988778516748 30.86946571417661 12.202949853307462 0 -1 0
4478 2 3.6443258858649026 31.449357299173716 11.464900070630858 1 -1 0
4480 1 4.271363310740827 30.89440007308059 12.118692564327128 1 -1 0
4475 2 2.250147002684259 30.77043467026021 11.24453593052979 1 -1 0
4479 1 3.518896956857641 32.51782034068239 11.818183645699754 0 -1 0
1611 1 3.108697113854512 38.963284031980564 17.95333295027784 0 0 0
1610 3 2.2513563989772067 39.19424968550913 17.578374722379685 0 0 0
1609 1 1.1204039641373171 37.709123164159315 16.949648213968825 0 0 0
1608 1 1.5408287392521813 38.84729797389559 15.796772403724018 0 0 0
1607 2 1.9637713119076818 38.26309129354749 16.612931461704658 0 0 0
4890 1 2.7942503205572446 35.543415194707116 13.509837169343824 1 0 0
4889 2 2.2333727382833195 34.63049894730861 13.63194476132866 1 0 0
2114 3 3.6291819580213827 31.398771664487345 14.845649208857296 1 0 0
895 1 2.3501162736840424 33.339666532443324 17.84091785216694 0 0 0
894 1 0.9858626720952434 34.228633092653865 17.486848917677765 0 0 0
2110 1 4.598939030388489 33.660118137975694 15.69929716796876 1 0 0
2108 2 5.412858036162724 32.86964940684071 15.511489657973762 1 0 0
2109 1 6.218905893513995 33.02134064374121 16.24061201233851 1 0 0
2107 1 5.919994171349313 33.08621942266355 14.57040517480138 1 0 0
896 2 0.6286473721727989 32.153198610021505 17.139781119324116 0 0 0
892 1 0.886017952819874 33.181857887397804 18.976397964138812 0 0 0
893 2 1.25712015614039 33.267975649024635 17.932730633901425 0 0 0
288 1 3.8852243492815774 39.55689872484214 10.290464722971175 0 -1 0
897 1 0.8294130640479278 31.21195674542083 17.60867445281999 0 0 0
900 1 1.8791896377503023 31.988753461130536 15.584655603525555 0 0 0
899 3 0.908495742018601 32.1245830192299 15.773622603476035 0 0 0
4896 1 0.3595652029351192 33.08030288214855 14.35277706382748 1 0 0
3615 1 6.277031988916235 37.28467770998133 13.754036649923894 1 0 0
1603 1 3.9671609651733144 37.40886500078815 16.78584210838455 0 0 0
1604 2 3.127526978228447 37.45323023658991 16.089122840169285 0 0 0
3618 1 6.413356877649792 38.82743198239221 11.606600995375857 1 0 0
3614 2 5.943062576162573 38.30073483189459 13.406121200468517 1 0 0
3617 3 6.897125087873473 38.81753019369346 12.418157593274808 1 0 0
1606 1 2.7864246581816463 36.47566015429627 15.691573010838715 0 0 0
4698 1 8.771071295405005 38.62399219339375 12.993867366103885 0 -1 0
1152 1 9.125166034915157 36.77309756762351 13.662623028735329 0 -1 0
4697 3 9.328516834925448 38.429530895918994 13.79447387379175 0 -1 0
3611 2 5.9763984107899635 39.36175706863747 14.533166435183977 1 0 0
3610 1 6.872314647486461 39.224489158634626 15.108054150646103 1 0 0
3612 1 5.074766028912031 39.43091115166674 15.175385721558234 1 0 0
3613 1 5.993702381698202 40.28349535196908 13.939483407663891 1 0 0
4882 1 10.079228043721633 39.28960572795804 17.893965347210123 0 0 0
4892 2 0.841063012764313 34.8918456536471 13.936385017321765 1 0 0
4880 2 9.15822762642855 39.164947872736825 18.552095185391284 0 0 0
4885 1 8.08240686771626 38.45081617306782 16.808500621209667 0 0 0
4883 2 8.215100113003098 38.18021075416278 17.85792821238978 0 0 0
4886 3 8.603261720727426 36.82319464463809 17.85246991663397 0 0 0
4881 1 8.609603793052386 40.05560285275751 18.697577967698724 0 0 0
4887 1 9.0758714838597 36.59896627507994 18.67149960681358 0 0 0
4891 1 2.225539438440882 34.05285397065596 12.714500424430996 1 0 0
4888 1 2.6222680115896373 33.956004985985935 14.516819888825175 1 0 0
351 1 7.396194152281408 35.498668235581334 17.94497139836739 0 0 0
1150 1 8.423675207641006 34.00732232659779 13.85444131314443 0 0 0
728 3 9.028428225024484 32.89443113958713 18.708885124535087 0 0 0
729 1 8.26538389250925 33.51737608459669 18.90651621968749 0 0 0
4893 1 0.6401665613038426 35.220352443754166 14.933363089098032 0 0 0
1148 2 8.201123445399752 35.08224906882431 13.716292201787825 0 0 0
1149 1 7.55062563988578 35.4493402831286 14.539776242857233 0 0 0
1151 3 9.405356537307883 35.7785305438148 13.575527259225957 0 -1 0
1144 1 6.478315252433413 34.70855668427164 12.268809095723734 0 0 0
1146 1 8.196871789769094 34.82261399457322 11.63908908011038 0 0 0
1145 2 7.498609929418503 35.15901170956451 12.375754939395494 0 0 0
1147 1 7.286930273632297 36.232117561376626 12.208681729897942 0 0 0
350 3 6.999303436643037 34.697427882545284 18.297058641405613 0 0 0
1605 1 3.4789427547469183 37.943453550187265 15.158507122885222 0 0 0
349 1 5.039727531606286 34.41866964477395 17.75095178407997 0 0 0
4560 1 3.7027308400653896 31.83720267623314 19.051279165524193 1 0 0
346 1 5.623324129513874 36.887114438400395 18.702748338667146 0 0 0
4879 1 9.481078033491265 38.67762473754903 19.44919019015423 0 0 0
4894 1 0.4037723019952682 35.55330753294123 13.189029001692287 1 0 0
4895 3 0.06825128484159343 33.7051192404077 13.690240792333263 1 0 0
4884 1 7.127787625466358 38.2515655021419 18.19437660600768 0 0 0
348 1 5.471404950964197 33.960213468403026 19.395477683970572 0 0 0
347 2 5.597900921601543 34.70187228739958 18.63382918008258 0 0 0
5461 1 5.001307498613304 39.268745670247924 20.365453896737474 1 0 0
343 1 5.620783150657319 36.189394163037456 20.209686424995613 0 0 0
345 1 4.050617504996433 36.24854123916152 19.330772375910772 0 0 0
344 2 5.113962069613222 36.03687530194105 19.217087438346386 0 0 0
2385 1 10.103868624021025 32.47172843721485 20.344051696956743 0 0 0
607 1 18.744317727028832 39.614967713769616 11.580072786661775 0 -1 0
2147 2 13.427977646082208 40.02060682557371 10.480954672370371 0 -1 0
2149 1 12.841055450994707 40.66865386284184 11.141316274467732 0 -1 0
2145 1 13.311500410950563 38.6777587467367 12.227520085669793 0 -1 0
3171 1 10.620740350153774 36.50581238045134 10.989026335217766 0 0 0
3207 1 13.524188594490399 40.418973581291915 16.53355223545066 0 0 0
5809 1 12.41199736938684 31.821360342377403 12.368313961922226 0 0 0
5807 2 13.072603261374466 30.989170522052017 12.557605773217803 0 0 0
2382 1 12.261036121765684 31.866786382489604 19.423330711125136 0 0 0
4690 1 11.640065691340014 37.525237947825126 14.949955297226964 0 -1 0
4691 2 11.489550015951567 38.56774487143311 14.699982957438577 0 -1 0
4692 1 10.982052648598097 38.890688547122835 15.562747050399894 0 -1 0
4757 2 16.570045493173602 36.147664806613896 10.641256964115152 0 0 0
4758 1 16.010501498189015 35.31671457240789 11.133604560763342 0 0 0
2144 2 13.922061240826118 38.89480747398117 11.288244517207405 0 -1 0
4693 1 12.474949454439505 39.11821613472342 14.757574989922787 0 -1 0
4694 2 10.696852867647205 38.87541912800108 13.492899091337684 0 -1 0
4759 1 16.003406448185725 37.10918354290027 10.689805169400342 0 0 0
4755 1 18.490645178259577 37.15214071361888 10.705889868205281 0 0 0
4695 1 10.675573692556263 39.97805028700815 13.240866684671136 0 -1 0
4696 1 11.020892796474728 38.30501650592286 12.631952222240717 0 -1 0
2146 1 14.955102390508861 38.93154816871753 11.54030019542679 0 -1 0
605 2 18.52158789846179 39.759133381791024 10.490337371996995 0 -1 0
606 1 17.490886075175794 39.34155192562098 10.32098039428562 0 -1 0
2512 1 17.622550068603893 30.966615390649793 10.95970141943839 0 0 0
5806 1 13.968557414252896 31.26150047460872 12.00358291277959 0 0 0
5808 1 13.392046706257933 31.07037969139816 13.60880082818235 0 0 0
2143 1 13.825759278064528 38.0263154296024 10.647769185311633 0 -1 0
1356 1 11.781773110430267 32.458063897489346 14.615010800666628 0 0 0
1357 1 10.98709248551015 33.72484005203992 15.629442380943738 0 0 0
1354 1 11.641326631457572 31.57183000332182 17.06001748207059 0 0 0
1351 1 12.557908689230224 33.11293348713588 17.511227750166388 0 0 0
1352 2 12.350101336426656 32.388388641196386 16.700699825451114 0 0 0
3169 1 12.357091212672925 36.6280068807727 11.45823113206213 0 0 0
1355 2 11.911764507695386 33.11792139278961 15.432021519289869 0 0 0
3170 2 11.653065483991488 36.05256253218601 10.880144456724603 0 0 0
1353 1 13.320904112239662 31.926901897108486 16.494342747247874 0 0 0
3174 1 10.654659477166243 34.25528708124853 10.921766382822751 0 0 0
3175 1 12.492955807376255 34.05868726827107 10.93077988791134 0 0 0
3173 2 11.61946562649316 34.579729287128856 11.29624229347919 0 0 0
3176 3 11.613111161745 34.509405955268974 12.776100962150364 0 0 0
3177 1 10.802687095043492 34.9624340948158 13.126989296510402 0 0 0
4756 1 18.534285115052395 35.423735273855776 11.036438942394819 0 0 0
4753 1 17.96158565533943 36.592791228357754 12.261407542403592 0 0 0
4754 2 17.942910156914834 36.32268160303926 11.196246636850436 0 0 0
1359 1 12.725534513758712 34.17306219762788 14.011825037300174 0 0 0
1358 3 13.040973536553611 33.95002039311211 14.93452282492359 0 0 0
4590 1 14.833615368942318 33.42782965987358 15.138896926774436 0 0 0
4589 3 15.73564416548515 33.179468696979406 15.41638316881525 0 0 0
4588 1 17.667838723792133 33.768594576508136 15.264855306768284 0 0 0
4586 2 16.736185790868944 33.97172680497842 14.775017230110965 0 0 0
4587 1 16.83479637194869 33.717075565723675 13.746948830150835 0 0 0
4583 2 16.542349247643998 35.53488380550476 14.706063250560984 0 0 0
4584 1 16.553956182537483 36.04201845012175 15.68162005362669 0 0 0
4582 1 17.3628655508474 36.08123418067443 14.170291058965006 0 0 0
4585 1 15.636534500698493 35.782571827318776 14.132647152414954 0 0 0
5541 1 15.196298554794685 39.39403898208415 18.832569391760693 1 0 0
2241 1 15.73219196867711 32.32095861393701 17.449897004899608 0 0 0
2240 3 15.975764105125698 31.916817665056218 18.274607699754462 0 0 0
5536 1 14.946330305659854 37.736726969830464 17.118651115894135 1 0 0
5537 2 15.875634957711524 37.61712936898024 17.746194219124117 1 0 0
5540 2 15.571934972454759 38.35414638864591 19.057709084869142 1 0 0
5538 1 16.128173168335827 36.549077974824094 17.939038251197445 1 0 0
5542 1 14.72121428913562 37.84200568754352 19.604237666391775 1 0 0
5539 1 16.70724323592221 38.10709701485048 17.205969692836153 1 0 0
541 1 16.588112224369297 40.636885782613426 14.606647274676863 0 0 0
856 1 18.37673386835773 34.982974134853905 17.187457626236426 0 0 0
388 1 18.091963296651844 40.073686001911696 16.992825824294442 0 -1 0
857 2 19.40135849737137 34.67320717205073 17.084534555564883 0 0 0
5543 3 16.576154042795213 38.404671661771665 20.042551957168026 1 0 0
5544 1 16.941310936057388 37.478710944492654 20.057370933897428 1 0 0
858 1 19.67721573851277 34.380460079784086 16.076206980164734 0 0 0
389 2 19.17839310391329 40.16636426875624 16.929397588135263 0 -1 0
391 1 19.603245406054764 40.48952841891537 17.919528326163107 0 -1 0
1551 1 12.640873299843935 35.7664295044222 18.52260357268715 0 0 0
1550 2 11.564710347100021 35.93913225195317 18.71507211213158 0 0 0
1552 1 11.18625076573923 36.85471631288814 18.190209579350455 0 0 0
1549 1 10.984515608878931 35.154422677024755 18.252207148477233 0 0 0
862 1 18.598318811351145 32.812979035764755 17.632893920962637 0 0 0
859 1 20.134774707514914 35.519291126765985 17.307398145729177 0 0 0
860 2 19.4347075473864 33.429529969816656 17.979819483049702 0 0 0
2772 1 16.771328247405894 32.98042214674141 19.58049362479627 0 0 0
5854 1 20.040814053501503 32.248434264128285 12.92222594737218 0 0 0
394 1 19.504355735923543 38.58455450346154 15.451544352345312 0 0 0
393 1 19.58899819781328 38.061488586956415 17.124891507792125 0 0 0
392 2 19.87876360008747 38.91742224681636 16.442311441884133 0 -1 0
861 1 19.18279240984266 33.69796406260726 19.07065211900569 0 0 0
5851 1 20.267429922354506 33.599505772064504 11.89091318357859 0 0 0
1405 1 20.101393819278666 36.95896853248957 20.03397808228805 0 0 0
2383 1 10.830988263438918 30.743289998273568 19.29178056951539 0 0 0
2381 2 11.611745845698174 31.212289860875845 20.02591864193653 0 0 0
1553 2 11.290922016391946 35.976156504337965 20.210060960596905 0 0 0
1412 3 17.651901242906444 35.90658951585018 19.960874859028007 0 0 0
1413 1 17.13433581753868 35.0897645087683 19.97479966996628 0 0 0
2764 1 14.878328096209499 35.141867435010994 20.072055445695494 0 0 0
2767 1 13.986487503862595 33.70861154931512 19.386417352953497 0 0 0
2765 2 14.431105929257608 34.17361842977293 20.32169558517498 0 0 0
3258 1 21.7622126675409 34.66341633322939 10.338332143853156 0 0 0
434 2 29.307251218131682 31.918446349728384 10.853942516948182 0 0 0
433 1 29.92325639362077 31.183957791668593 11.38752694106392 0 0 0
1622 2 24.899223289066153 40.75211016320864 17.864646874533623 0 -1 0
1624 1 24.94271657034691 39.72394027756972 17.50065983434018 0 -1 0
5306 2 24.35199037894309 30.78205279517284 15.80356580448621 0 0 0
5308 1 25.32702810029202 31.2447915572008 15.460778997815803 0 0 0
6027 1 28.065031685271343 30.79573130755205 19.64266865863064 0 0 0
5856 1 22.717479358061905 32.44985411567404 13.038743848892755 0 0 0
437 2 29.86850335452102 33.31952765106651 10.956707542059322 0 0 0
438 1 29.727288409928864 33.725739732690464 11.936686719240651 0 0 0
816 1 28.147459771263517 40.365426494152 16.98952711224019 0 -1 0
4570 1 28.607401816699774 31.13926961948757 14.032231680936377 -1 0 0
5610 1 28.80156573124858 39.57106089329131 12.103054129447804 0 0 0
5614 1 27.105198169509315 39.22857618322039 14.029138631076135 0 0 0
5608 1 29.642541734393227 38.76052289739903 13.484854868947249 0 0 0
5611 1 28.993170322376187 37.78853741191735 12.025200152033754 0 0 0
5609 2 28.824604046026256 38.653591717160324 12.714649068300782 0 0 0
5307 1 23.543244718926715 31.469057226954973 15.348077294958845 0 0 0
6030 1 27.246268766904556 32.76288432401151 19.81813096394949 0 0 0
2376 1 26.03289978351445 33.10387108585405 11.256033241404786 0 0 0
2375 3 25.373890147825097 32.79229684449986 11.92920732117625 0 0 0
2373 1 26.688690236363517 32.48299178505681 13.417977906355471 0 0 0
2857 1 21.394957596158893 39.654128799536046 12.82617176384973 0 0 0
5857 1 21.896853071831146 31.554218653261408 11.722104401514178 0 0 0
5853 1 20.880685799325516 33.74315695571803 13.559625851769962 0 0 0
5855 2 22.02593048257873 32.54742471528358 12.161175837985079 0 0 0
5858 3 22.728186575665113 33.42229929848948 11.208092123969184 0 0 0
5859 1 23.63580832670866 33.094645345150255 11.198514026408818 0 0 0
436 1 28.377255376303715 31.89998267961684 11.39193153087282 0 0 0
5852 2 20.739401384361656 33.056039288403305 12.716892168589412 0 0 0
2859 1 23.56294363854479 39.109885312593434 10.856816866533153 0 0 0
5303 2 24.35545053476906 30.606070646135173 17.296317229670095 0 0 0
2665 1 28.4250138310659 36.7370687157819 20.21140749633776 0 0 0
2667 1 29.9167304643691 36.78319181506031 19.28568045108158 0 0 0
2666 2 28.96468691750064 37.17511148120216 19.391760990550374 0 0 0
1626 1 23.03189839049311 40.589947739646824 19.155864535989778 0 -1 0
1629 1 22.113736072597856 40.286655866959805 17.04018691593914 0 -1 0
2862 1 23.707779340269642 40.098404926744024 13.528912674784516 0 0 0
5305 1 24.481922184482144 31.556863504519097 17.82349909545007 0 0 0
863 3 20.647883017369182 32.65213579470121 17.87063885561502 0 0 0
864 1 20.643266604711613 32.081788797433845 18.628059039658435 0 0 0
2856 1 21.00375719600411 39.60789713440711 11.114397704317923 0 0 0
2854 1 21.873000167339857 38.092680730818515 11.938872067071356 0 0 0
2371 1 25.758023846566033 35.34282290168662 12.644433895715128 0 0 0
5612 2 27.405318318558795 38.41951177374806 13.27323196006998 0 0 0
5616 1 25.653518506689995 38.92373771927765 12.358264656595534 0 0 0
5615 3 26.504852752091615 38.42484149264027 12.194736143569973 0 0 0
2370 1 26.690665452317738 34.96122312157745 14.088032488164327 0 0 0
6120 1 27.099858502745523 38.79745538105317 10.565827443999341 0 0 0
6265 1 23.710673659211775 34.61060344299827 15.229935525340363 0 0 0
395 3 21.29194073260599 38.999813176275076 16.53600980955935 0 -1 0
6273 1 23.11532645855608 37.94153844774683 13.929288611553291 0 0 0
6272 3 22.36372753033264 37.60227197592258 14.443636036583246 0 0 0
396 1 21.698076694262245 38.444413234317935 15.87754038351023 0 -1 0
2861 3 23.973750632343517 39.37797900792532 12.904604010163462 0 0 0
2368 1 27.283293358698206 34.51369532802624 12.468048267885871 0 0 0
2858 2 23.235593817457453 39.72532405121359 11.696840128865409 0 0 0
2374 1 24.971411086173813 33.18198444061145 13.906174134595515 0 0 0
2372 2 25.83894794633691 33.19576715288586 13.193309612865537 0 0 0
2369 2 26.44331149784338 34.56902428232137 13.089863405388941 0 0 0
2855 2 21.749988717569146 39.246809584442005 11.861917067002477 0 0 0
6270 1 22.487337445988633 35.79191791407406 13.460432372533758 0 0 0
6269 2 22.619997612284546 36.15704872544898 14.531832084096816 0 0 0
6271 1 21.816884000568816 35.79041092979255 15.200735973964512 0 0 0
6266 2 23.95199581067598 35.70900089013525 15.073181947168843 0 0 0
6268 1 24.74617116931219 35.93184407341082 14.353169839357871 0 0 0
6267 1 24.01819789561063 36.22594265039503 16.0732212529627 0 0 0
2669 2 29.13869135995843 38.64791268953572 19.6929470877906 0 0 0
2672 3 27.869802067770802 39.14783110426862 20.08853883002192 0 0 0
5613 1 27.486091366720338 37.41908927991888 13.725433371520484 0 0 0
2670 1 29.93996394072413 38.94101441254973 20.353229951573432 0 0 0
2671 1 29.5019345652987 39.13038574652867 18.76915381851989 0 0 0
4818 1 26.98560861999828 33.01334075538403 17.592662565476804 -1 0 0
5399 3 21.843120362987285 30.894168795479455 19.88244112600923 0 0 0
4817 2 27.720372359903624 33.62432122462744 17.206337570265966 -1 0 0
4819 1 27.639331453720576 33.53616483705501 16.101302758643516 0 0 0
753 1 30.551472788471045 32.17908277949597 15.2725516871672 -1 0 0
4821 1 29.438750456895672 32.20668484879662 17.42488327973489 -1 0 0
4823 3 28.879625237962795 33.30254156905763 19.226640402323948 -1 0 0
4820 2 29.09514574376942 33.249898505609586 17.821230227626224 -1 0 0
4822 1 29.900802025195212 33.82662377882814 17.36729258798931 -1 0 0
4816 1 27.553598699370426 34.72478895922682 17.39379720641135 -1 0 0
4824 1 29.65651430087481 32.94789603236779 19.67534596618807 -1 0 0
2730 1 24.548981018721236 34.98731379529879 18.173941250195234 0 0 0
2728 1 25.044585541321553 36.17882594415932 19.38720950771731 0 0 0
2729 2 24.88782592483282 35.13904709914017 19.218086254414953 0 0 0
5400 1 22.426764320001567 31.65208581478234 19.96356605059016 0 0 0
2734 1 22.84201014262452 35.03216807227179 19.974691247059877 0 0 0
2732 2 23.84369093811286 34.59921029500264 20.199730947034606 0 0 0
2735 3 23.656372497761165 33.18318599818272 20.067162330000883 0 0 0
2668 1 28.30546526864978 36.90281072560216 18.564207396576297 0 0 0
2736 1 24.537350282140025 32.823501502333386 19.970721605275617 0 0 0
2731 1 25.890837054823265 34.70128494387955 19.428050915276714 0 0 0
6026 2 27.05546231494104 30.84015500772066 20.171535877284057 0 0 0
6029 3 26.49787172120247 32.18475925201423 20.05100688567882 0 0 0
3810 1 25.207726163258574 39.416623850632384 20.232701812612934 0 -1 0
4771 1 33.47524025201048 39.94509672100521 10.34492511556787 0 0 1
439 1 30.939224684873107 33.31425304371888 10.736700156356147 0 0 0
4774 1 33.11686253066407 38.193013879351085 10.738854627896195 0 0 1
2630 2 34.996862554594436 32.787114537763266 10.373491390418838 0 0 0
2635 1 33.733104658467674 31.264310045421006 11.145780247436344 0 0 0
3803 2 40.73631695475557 40.5730717174465 19.872574527662668 0 0 0
4251 1 37.15331160149891 30.897356939163775 10.853270952417745 0 0 0
2674 1 34.01295586535825 31.79838073863688 18.6974221329826 0 0 0
2675 2 35.08757139041824 31.56774581190766 18.62028736465029 0 0 0
2677 1 35.64658116729275 32.47091409292391 18.42040709838517 0 0 0
2676 1 35.221287601048815 30.836927066889288 17.868300105381298 0 0 0
2678 2 35.59221468531544 30.960856098777064 19.89743628955038 0 0 0
754 1 31.08663932129001 33.42371263000204 14.090203628700612 -1 0 0
1990 1 37.80481521502225 36.690380493781355 10.248056466026432 -1 0 0
898 1 40.350384328070334 32.21214959382703 17.15260797209637 -1 0 0
4537 1 37.664341010976095 40.21544956876052 10.235457505527119 -1 -1 0
4648 1 34.88682305976097 40.266273615114905 13.269577686962215 0 -1 0
64 1 30.969335669123723 38.91660591922059 16.48148134080805 0 0 0
5509 1 39.504845237679945 38.2472451241847 14.131585884906386 -1 0 0
5512 1 39.878893961100175 38.93356203725675 15.725534067524551 -1 -1 0
752 2 31.473913227982457 32.55319253360645 14.784857366315526 -1 0 0
755 3 32.04530131093155 31.4476254228969 14.077514301980676 -1 0 0
748 1 32.113514556814444 33.98290557162769 16.129170731821922 -1 0 0
749 2 32.530313618453796 33.11577692016421 15.717619591804155 -1 0 0
750 1 33.30993990574978 33.45979196018225 15.079495827364385 -1 0 0
751 1 32.91292893857718 32.39129620705582 16.439231461554133 -1 0 0
756 1 32.95625189471441 31.61622936328556 13.852211307163383 -1 0 0
4540 1 36.273761703270445 40.7884779810663 11.251954610228749 -1 -1 0
2634 1 33.18147110168795 32.85260021356203 11.444941607221065 0 0 0
2341 1 37.729586372267654 34.5303715695582 18.353076503010016 0 0 0
2343 1 36.66021404088078 34.20231805043198 17.07085234762274 0 0 0
5511 1 39.92623961760795 37.14823774899057 15.415680999138646 -1 -1 0
2344 1 37.506690571817494 35.754851444148514 17.160554558267858 0 0 0
2347 1 39.10918973969936 33.20266460899898 16.613505765486764 0 0 0
2342 2 37.590117225778904 34.725937871093116 17.29951326083125 0 0 0
2349 1 39.35792784632988 34.16919305477475 14.525720697143623 0 0 0
2293 1 34.29040951454891 37.92795604786671 19.618384415682495 0 0 0
2294 3 35.08667346140911 37.977571254219605 17.775038885410392 0 0 0
2292 1 33.75869103934516 36.567337832054804 18.495797493794 0 0 0
2291 2 34.548836779995284 37.22432639540027 18.86054573354715 0 0 0
2346 1 39.63273982927483 34.910847729101576 16.744554574548104 0 0 0
2345 2 38.75811861668026 34.30358134377473 16.390799048554918 0 0 0
6235 1 35.07062283245483 30.914189743992456 15.282196781678524 0 0 0
2632 1 35.75362026906844 33.56790490082468 10.79675253035222 0 0 0
2348 3 38.53384522140867 34.53352650415648 15.019890856069265 0 0 0
1992 1 37.246088402379655 37.80431730698798 11.518929479935386 -1 0 0
1991 2 37.19198320637441 36.76562692544047 11.164593156901471 -1 0 0
1993 1 36.18881787741885 36.606563291207934 10.856976136170838 -1 0 0
6230 2 37.203099313917185 30.999092141913636 15.48544460262334 0 0 0
6232 1 37.285518277204055 31.870881734422888 14.847019681443012 0 0 0
6231 1 37.31022241457963 31.307681043392634 16.545465589054537 0 0 0
3316 1 32.17988218094954 36.65881238406128 11.204880126927323 0 0 0
69 1 31.75181661305013 37.083456416538695 15.184423419042055 0 0 0
3319 1 34.20225536308815 37.27503846497991 12.635108568156367 0 0 0
3313 1 31.731469441380618 36.792703636474194 13.081357697784618 0 0 0
3314 2 32.27646765840856 36.327171529924016 12.250627594505925 0 0 0
3315 1 31.977526714661117 35.306486881885 12.278751967668466 0 0 0
1996 1 38.63205867529069 35.863202232130845 12.505313083572567 -1 0 0
1994 2 37.61820139508764 35.756298524880854 12.25939853845689 -1 0 0
1995 1 37.333989638130525 34.70467392441358 11.95779111462104 -1 0 0
3318 1 34.38583368995153 35.79428279593029 11.634277322033956 0 0 0
3317 2 33.82350824511861 36.247861285665294 12.481554996815849 0 0 0
1997 3 36.91563389608209 35.98837826413721 13.4449862708289 -1 0 0
3320 3 34.144130918420984 35.536186555084214 13.701257121680092 0 0 0
70 1 32.49972898060527 38.50363897883333 14.644796361869668 0 0 0
2637 1 35.23293344296958 31.557916279236423 12.942736024796993 0 0 0
1998 1 37.387647836656434 35.456409260983854 14.104956965980417 -1 0 0
66 1 32.630426531062916 39.514826566384464 16.934507702046947 0 0 0
67 1 31.841825279216412 37.98572784572216 17.572162438288142 0 0 0
65 2 31.972330101642083 38.64145849841085 16.708815178184178 0 0 0
68 2 32.4384057431382 37.84179455405164 15.498814425748295 0 0 0
3321 1 35.08413739829672 35.5537299515617 13.71084806027352 0 0 0
2633 2 34.02282743024001 32.27556787239646 11.447209559415384 0 0 0
2636 3 34.600916194556625 32.27408496537089 12.821489681904028 0 0 0
72 1 33.90076782126125 36.60248169687457 15.171139910214116 0 0 0
71 3 33.67282331849049 37.24268770470356 15.858659392462336 0 0 0
5517 1 36.73143520455194 38.286170827326536 17.09823813273397 -1 -1 0
5516 3 37.713233162232356 38.1788432998399 16.945264071095536 -1 -1 0
2295 1 34.506346249309125 37.678125557537136 16.992380155178946 0 0 0
5515 1 37.19107285160424 37.629732930644195 15.067845703531354 -1 0 0
5513 2 37.90837427239426 38.33727056116909 15.572340076437827 -1 0 0
5514 1 37.63057645480972 39.36972153935381 15.272755750092212 -1 -1 0
5510 2 39.38174193115535 38.06852664602516 15.194603862682301 -1 -1 0
3799 1 40.36123507444963 38.37142564892832 19.857689612572464 -1 0 0
2794 1 31.024888351901122 34.75898314040274 19.615410156290423 0 0 0
5671 1 36.02321773411962 40.649412843947914 19.21712734537243 -1 0 0
2290 1 36.524251894387255 36.74349822118004 19.81258246283603 0 0 0
2288 2 35.580811456754304 36.27907823039942 19.500460544289005 0 0 0
2287 1 35.7823600933484 35.31797922014991 19.036096914756428 0 0 0
5673 1 34.45852546434407 40.540619925306224 20.096115456646306 -1 0 0
5672 2 35.56536182717499 40.490824916881664 20.171639958172086 -1 0 0
4970 2 2.9153289862902363 5.082922628275083 20.511376148656307 0 1 0
4977 1 0.6371006467599157 4.554940808058364 21.145399501573056 0 1 0
4028 2 7.396908636713558 8.64657460927611 21.28936732298425 0 0 0
4030 1 8.056650295992844 7.855456142976853 20.861885272683892 0 0 0
4972 1 2.868356400085825 5.236214236887787 21.573289133473338 0 1 0
6274 1 3.7410958464476134 8.993161674154837 20.402931599738963 1 0 0
4027 1 5.593309221391719 7.440826172554643 21.41756605595148 0 0 0
49 1 8.046496811176166 3.981135455145498 22.34756260165597 0 1 0
48 1 8.355181010991595 5.539394692253112 21.39508882926267 0 1 0
4025 2 6.193242140412106 8.105079642847357 22.061836428117864 0 0 0
4026 1 6.478611051367253 7.467342998970633 22.855563198009555 0 0 0
47 2 8.72361024262669 4.710937424027569 21.988182380837046 0 1 0
46 1 9.479115409993826 4.1673626955959 21.380995380634626 0 1 0
4024 1 5.557007165990459 8.809756862532828 22.54368745708903 0 0 0
4029 1 8.048473229709748 9.291528142453178 21.87804260382123 0 0 0
3806 3 0.6313951195089489 0.7413023628035559 20.700440251150066 1 1 0
360 1 0.769196158007623 2.4344934738398094 21.72306996229758 0 1 0
352 1 1.3669432853787413 3.9711893821044075 25.457744078900596 0 0 0
353 2 1.4420966198192773 4.19488628420149 24.350613035920457 0 0 0
354 1 1.0502941399488943 5.216070700090085 24.203100229247212 0 0 0
355 1 2.4841618852812557 4.257676068578112 24.060052089506392 0 0 0
4509 1 5.851541361541797 9.580607711001443 27.12496723750262 0 0 0
4508 3 5.444488683029 8.775741406932653 26.748637364987168 0 0 0
4506 1 7.2039045694744 7.670183331811463 26.501871714655394 0 0 0
4505 2 6.199761375881634 7.595762736809869 26.86644130873334 0 0 0
4502 2 6.404416983667984 7.237880755884708 28.33691044230893 0 0 0
2474 3 4.091755970411102 1.709220592118535 27.763641843905123 1 1 0
2471 2 5.316918417044685 2.0244165893656416 27.117286532699268 1 1 0
2468 2 5.673661990726485 3.5287123573467474 27.115275439373008 1 1 0
2469 1 6.0308509371254235 3.8156247098437306 28.129556351907304 1 1 0
2467 1 6.5901675985848245 3.705570533903216 26.5642831031286 1 1 0
2473 1 6.114633900880517 1.4577187556965796 27.523039819154107 1 1 0
2475 1 4.335811711083896 1.5447357619129856 28.714902804793912 1 1 0
1313 3 4.195096125266086 9.003898859386867 24.48256256244741 1 0 0
1314 1 4.758114307866531 9.02034224286208 25.294817110169795 1 0 0
1308 1 1.8340968608505215 7.11758151645122 23.131987692584136 1 0 0
1311 1 2.6937268102764995 7.913825952393025 25.321233673787724 1 0 0
1310 2 3.3069382671202376 7.869883696948472 24.49991508296857 1 0 0
1312 1 3.92826595851255 6.961184653735561 24.592459127586487 1 0 0
1307 2 2.5808791275996175 7.8659839219132435 23.209759398482653 1 0 0
1306 1 2.2005572113957013 8.792064097220985 22.829917437378615 0 0 0
1309 1 3.298198322978972 7.615174742907099 22.3879952112424 1 0 0
4507 1 5.651648236674026 6.759845106897026 26.35682394814654 0 0 0
2472 1 5.2308845081838236 1.7409392779321688 26.015737421925085 1 1 0
2470 1 4.7762986972327806 4.124388578528558 26.904388053513422 1 1 0
4504 1 6.076598494747067 8.105109200406872 28.963513409113425 0 0 0
4503 1 5.877801084406483 6.272995972726221 28.618607616164514 0 0 0
332 3 5.850068923184933 0.7022077374453359 29.90520901635976 1 1 0
356 2 0.7020761259204824 3.1522304929794904 23.569510735445984 0 1 0
359 3 0.9675812029654494 3.291609260227485 22.144729203364463 0 1 0
4057 1 0.25933400186044997 0.7314785392724381 26.196752375994503 0 1 0
4055 2 1.1934789559563954 0.5217142015920969 26.7989449851092 0 1 0
3634 1 10.135684519589379 7.784953303562823 24.937101390765417 0 0 0
52 1 8.65511746438128 5.5596656338401385 23.928556758642387 0 1 0
51 1 9.79623973393025 6.388961179769718 22.809137161514087 0 1 0
50 2 9.432092673874314 5.405524451808296 23.18249400101742 0 1 0
329 2 7.134174381866829 1.244171559650656 30.20057037143066 1 1 0
3306 1 6.433660902663856 0.5908169611802472 24.175999749768184 0 1 0
3305 2 7.141731700337319 0.04604860598477669 23.550856432565062 0 1 0
5097 1 0.4362569824414282 6.442156765701554 26.081289250092336 0 0 0
3309 1 8.940535485333251 0.40177474260204143 24.64984920581955 0 1 0
3807 1 1.5417363635113468 0.5045665168098761 20.894542958931062 1 1 0
402 1 1.5300738396279852 2.0238217028303143 29.149817685715252 0 1 0
5095 1 0.7451010100431513 6.945124234079555 27.693165972529076 0 0 0
4056 1 1.649977378606971 1.4456404627482922 27.06474818287917 1 1 0
3304 1 7.4501542992222625 0.783879410426872 22.77593803156589 0 1 0
3952 1 9.81147249746382 3.07440572630177 25.375765552950686 0 0 0
3954 1 8.372471600802703 2.528686004797642 26.139138961071293 0 0 0
325 1 6.085649660584232 3.141577527779295 30.078281255478178 1 1 0
330 1 7.831378488492382 1.153374324116202 29.3993727989757 1 1 0
399 1 2.385187934424252 4.2240282583051405 29.480003884714925 0 1 0
3959 3 9.296144360188562 3.0218469720784404 28.677127845529967 0 0 0
3955 1 9.860376768295314 1.574397486963883 26.515764296535867 0 0 0
3953 2 9.436166348774643 2.6201122066492872 26.261469425047988 0 0 0
357 1 0.9863281775121409 2.113028310951532 23.871985169072744 0 1 0
4501 1 7.420082683494491 7.018441522036637 28.5730960550594 0 0 0
5373 1 10.122481649662202 1.3026766642837826 21.0642905732976 0 1 0
3765 1 10.008516747571472 5.873049556412793 29.418062783345533 1 1 0
3958 1 9.25114181900368 4.482123964223037 27.265358792215824 0 0 0
3956 2 9.682978955582096 3.515648085254472 27.454918640969204 0 0 0
3960 1 9.825118698602779 2.2443382687074034 28.883770554292163 0 0 0
6280 1 1.5455931565108894 10.092953581473646 20.44258571111897 1 0 0
403 1 2.824343768217604 1.8934829508824254 30.445715372676 0 1 0
401 2 1.8035671588208422 2.279980804660563 30.205607601444548 0 1 0
398 2 1.809627674208551 3.7992307971085353 30.397373850495043 0 1 0
397 1 0.8185978990010874 4.2140193614768044 30.35841872507137 0 1 0
3628 1 10.616590893995955 6.403727240607497 26.862687615856856 0 0 0
53 3 10.48506910763867 4.679944116944165 23.846463698481553 0 1 0
3633 1 11.791280259253071 7.465948696129791 24.780492421704928 0 0 0
3629 2 11.09395531197394 7.385594359686111 26.819123147372654 0 0 0
3632 2 11.077131151197271 7.992585789754608 25.403809769562923 0 0 0
3630 1 10.442163142032628 8.081181850420172 27.444925895447675 0 0 0
3631 1 12.116223390711573 7.292715196660708 27.165285969584303 0 0 0
1129 1 17.031741364430403 2.3628241403957464 20.547825242644873 0 0 0
54 1 11.26625752748283 4.872741920677662 23.292568094166917 0 1 0
3957 1 10.854095501818328 3.7240004843715364 27.493380584669744 0 0 0
5368 1 11.585514198077751 2.0194341292593885 23.364029101448747 0 1 0
880 1 15.668357842665179 7.206019822822233 20.395543506647005 0 0 0
378 1 13.673188019475047 1.830422321368754 28.56831387944358 1 1 0
95 2 14.900178863456278 9.522453282999285 29.029028304651945 0 0 0
98 3 14.91086790855739 8.580484817109872 30.05980629946487 0 0 0
3024 1 12.95114662810211 4.917103126347317 21.119563431128473 0 1 0
3023 3 12.827672780603455 5.009692725547262 22.070495452167357 0 1 0
3016 1 13.59635608235291 5.200866965109248 24.64056005227208 0 1 0
3019 1 14.048342900177076 3.650346808376942 23.84805083622749 0 1 0
3017 2 14.222722718171484 4.676468337824834 23.959223279701927 0 1 0
3020 2 14.10490520781658 5.355012769062154 22.589153887145024 0 1 0
3018 1 15.227220709453155 4.8694710632348785 24.325343172912387 0 1 0
377 3 14.501177980099648 2.299679555609177 28.373950147125402 1 1 0
879 1 17.331310332751517 7.9587748106632725 20.766043454802013 0 0 0
877 1 15.56445480947692 9.61027662242454 20.786777182287878 0 0 0
3021 1 14.263981693413314 6.436620517244716 22.643593723504395 0 1 0
4491 1 14.933795895076386 3.8587768715024837 28.657147090719295 1 0 0
4487 2 15.704549970867202 5.609470011548193 28.08007049239382 1 0 0
4488 1 15.183587731855093 6.534700360320228 28.29243240183338 1 0 0
3022 1 14.864584233027246 4.914628906641385 21.90674715754273 0 1 0
4490 3 15.432242467122634 4.553448431956934 29.099952643243938 1 0 0
4485 1 17.693013645508795 4.9980018467150185 27.567757165860836 1 0 0
4489 1 15.343224156403332 5.254593723086214 27.17202121535172 1 0 0
4484 2 17.175484572620434 5.8941954185049195 28.04877868364669 1 0 0
4483 1 17.39840104712499 6.830443434211582 27.52955561520978 1 0 0
4486 1 17.570823625420072 5.979188819703739 29.029500921989175 1 0 0
374 2 15.621735165450833 1.4711172084159654 27.913613202736435 1 1 0
375 1 15.448088437413041 0.43994134062059925 28.310717912551983 1 1 0
372 1 14.708899435769284 1.0014461478524035 26.106546705199523 1 1 0
373 1 16.548935127727354 1.0167732046226727 26.146344274882086 1 1 0
371 2 15.611263938115249 1.519040428324326 26.376754647486184 1 1 0
370 1 15.595568507294656 2.5615279105029414 25.985401937981766 1 1 0
376 1 16.540738026811663 1.8454298437438006 28.396707606163872 1 1 0
1947 1 16.59196821315356 9.75545054970788 24.617859808197764 0 0 0
1585 1 18.16003076645808 4.245887676257316 25.584616945396427 0 0 0
1950 1 14.76947360926079 7.928485322257647 23.804019576877366 0 0 0
1948 1 16.863353680641406 8.022480925082746 25.181094821972263 0 0 0
1945 1 16.159614611673405 9.042817064075486 26.32170378532633 0 0 0
1949 2 14.712646141053769 8.551362878019551 24.779710778982444 0 0 0
1946 2 16.16685098982404 8.929245724493423 25.227520777049353 0 0 0
1588 1 17.616540154766344 3.1951507856439596 24.244476537077873 0 0 0
1587 1 19.321514405718744 3.5335581209048255 24.50389363383922 0 0 0
1586 2 18.280742254407933 4.013942100128369 24.550567696071926 0 0 0
1951 1 14.256783430645 7.882640901485528 25.535486563130206 0 0 0
1952 3 13.934430036844471 9.690773896364176 24.574346388843725 0 0 0
3635 3 11.348687609070101 9.404547158914257 25.42761453977742 0 0 0
1953 1 13.016109267662777 9.515554007047568 24.899553230400297 0 0 0
1591 1 17.426761970751222 5.912782755822837 23.6825663372464 0 0 0
3636 1 10.950292507618556 9.837878840817202 24.62217870891532 0 0 0
5369 2 11.654287021746773 0.44250347549094143 22.045110718419124 0 1 0
5372 3 10.297888170983947 0.5152457329631479 21.556415272432655 0 1 0
97 1 15.857406057282969 10.073659169805353 29.13075143574274 0 0 0
3769 1 11.853332840987296 7.520458392458303 29.1370887131872 1 1 0
99 1 15.874190408268769 8.534010221331506 30.342957574120817 0 0 0
5176 1 19.929353265475356 6.976043875240897 28.846933515323986 0 0 0
1589 2 18.336898423635667 5.260443787147355 23.640777312045326 0 0 0
2801 2 19.80473087315513 0.5216959669786887 26.60643492489191 0 1 0
3077 3 12.28717787736253 1.2364726834066 29.427104464706808 0 1 0
5370 1 12.198345675941006 1.0565067901706564 21.423987726569298 0 1 0
2802 1 20.281021528699718 0.09251276230162736 27.473933046218065 0 1 0
1178 3 19.58449983229156 7.979523831124778 21.87831865590568 0 0 0
1175 2 19.97571441343623 9.192163879980415 22.491512810044405 0 0 0
1179 1 19.486778723822844 7.294155221442316 22.634364397582644 0 0 0
5177 2 20.01157865185374 7.905060937800178 28.183554566501705 0 0 0
5178 1 19.0107179962147 8.299058817467104 28.19537427234948 0 0 0
1117 1 19.98837945202178 1.2884864039314747 22.7499483186613 0 0 0
1177 1 19.5868030290907 9.338316552719823 23.563388412203636 0 0 0
5366 2 11.821344188482268 1.0245686779608076 23.394562708637114 0 1 0
5365 1 12.853630858243331 0.9782063101554713 23.598944965684353 0 1 0
4309 1 15.472671356507997 0.8642789059443281 23.8304198793351 0 0 0
4308 1 16.804180900798585 1.249599256727464 22.894692503394793 0 0 0
4307 2 16.12663997593951 0.4141760885042877 23.085762594480595 0 0 0
3078 1 12.409984236248413 0.387682467807792 28.887546010886457 0 1 0
2497 1 19.378400700163166 0.46544144719283775 30.32189641691075 0 0 0
2803 1 18.912601641233103 1.1598624240573823 26.878940223948195 0 1 0
1590 1 18.410239973182122 4.849532113196025 22.612384780824925 0 0 0
1592 3 19.469000759892403 6.108723639277227 23.770873780074712 0 0 0
1593 1 20.363894469917454 5.662188334743822 23.921589879436556 0 0 0
5182 1 19.632346081382376 6.7492500405810505 26.355086740489604 0 0 0
93 1 12.826725088895046 10.171322928241366 28.648556096057334 0 0 0
1174 1 19.751525869200485 10.135444719665935 20.604662239942716 0 0 0
3603 1 10.666463433260816 9.695513675800699 30.355312083282357 0 0 0
2494 1 18.968563657465136 2.0961000331437116 30.55553762696177 0 0 0
4303 1 15.192292480784475 0.7209562538026879 21.221929437071775 0 0 0
5367 1 11.266134897720807 0.47309395925983605 24.149312524861212 0 1 0
4731 1 11.907333317110064 0.026717212980684975 26.5729683818148 0 0 -1
2496 1 17.841673108133623 1.002560583829646 29.72354690213897 0 1 0
2495 2 18.51474236465497 1.1029760834773306 30.59147541880291 0 1 0
3763 1 10.954808429224096 4.901443780769788 30.416465067703324 1 1 0
3767 2 12.053418613825684 6.601367216772663 29.70396235719978 1 1 0
3771 1 13.75556384124538 7.178921437440174 30.366255239510426 1 1 0
3764 2 10.743301288162684 5.892146546677573 30.18416992075073 1 1 0
3768 1 12.54611078742786 6.027640692938255 28.857103617589868 1 0 0
96 1 14.94232109759496 9.059439125586994 28.05525810177176 0 0 0
33 1 19.08255993631442 8.231507044529051 30.38339158004906 0 0 0
1123 1 21.02690916841559 0.3265898974781911 20.885945639250668 0 0 0
3000 1 26.770285526405296 9.791855004640583 21.148777866453997 0 0 0
2454 1 24.24830637323667 4.958460177252311 20.65254794751209 0 1 0
132 1 28.406962582529808 2.5960500947667198 20.932853171054976 0 1 0
134 3 27.404231777004 0.9412211760579057 20.45382881564111 0 1 0
1121 2 21.478688255658454 1.238196940519746 21.331724912393675 0 0 0
1124 3 21.183316693878798 2.399492000383924 20.562961247024194 0 0 0
1122 1 22.548253834683404 0.9794748294603601 21.20765106577588 0 0 0
2800 1 20.535340178322283 1.185689011845304 26.10529964632168 0 1 0
5179 1 20.79599232934897 8.575027066131831 28.53469652058349 0 0 0
7 1 28.915879246335642 5.428014504106272 20.96982009069364 0 0 0
2999 2 25.7593610645601 9.902840538900774 21.521423827523197 0 0 0
8 3 30.29814672157063 5.7476148189042435 22.43881818460024 0 0 0
133 1 27.760061107195806 1.8095137216417467 22.362971733628054 0 1 0
6 1 28.171314702213074 5.6258353789519004 22.67049003928947 0 0 0
2451 1 21.531734811917524 6.204720003085219 21.31957320346888 0 1 0
5181 1 21.32161570865458 6.767276634185796 27.040375256689277 0 0 0
5180 2 20.408665558655724 7.34146232325855 26.87130390490364 0 0 0
4 1 27.9237717340468 7.552672272591053 21.043004971271177 0 0 0
2450 2 22.388565766056693 5.990777014534257 20.684196293954518 0 1 0
2455 1 23.893775903301176 5.803172220382042 22.179930254452948 0 1 0
2453 2 23.436137609465685 5.196361667821295 21.42248820093204 0 1 0
3004 1 25.425206560887883 8.22386750812583 22.81183389711443 0 0 0
5760 1 22.561136179534635 4.532410535445262 23.640490104155393 0 0 0
5759 3 22.13068603099715 5.056693992108284 24.33666737109716 0 0 0
5345 3 23.510208049545437 7.264899587590284 24.453838008560886 0 0 0
5342 2 24.758516075016825 7.2697487408384 25.104219467508543 0 0 0
3006 1 23.30272351875957 8.347365435738771 22.660676140771166 0 0 0
5346 1 23.083716401593232 6.385625943393833 24.52200901106301 0 0 0
2457 1 22.41908283852766 3.4056603016714284 21.43212938422076 0 1 0
2456 3 22.934713347741116 3.9819438559002465 22.005188220321493 0 1 0
3005 3 23.686680273271623 8.835003175496565 21.91618693861021 0 0 0
5343 1 25.007798745007317 8.362423368403412 25.119517501737242 0 0 0
3002 2 25.105411084639304 8.585895518627796 21.812144949247152 0 0 0
5339 2 24.658279590717477 6.787565348959126 26.559378273420503 0 0 0
5338 1 23.618570278272784 7.054988064998821 26.90462114466822 0 0 0
5341 1 24.69721809602539 5.683611783600269 26.491731219595135 0 0 0
5340 1 25.50559114425629 7.136081264484826 27.16168044863388 0 0 0
4221 1 28.94341414451596 0.50734399280244 24.970101872110956 0 1 0
5344 1 25.58989731899584 6.807418441868924 24.557893760515594 0 0 0
3003 1 25.33942930848303 7.857247854308935 20.995419992265273 0 0 0
4219 1 28.128329291804448 3.0325641633971836 24.24748942277071 0 1 0
4217 2 28.887747337615547 2.423678505136589 24.844919054772507 0 1 0
4220 3 28.938561895545 1.1295787021268124 24.264345806748903 0 1 0
5756 2 21.937605672007127 4.226331844327519 25.482812961829275 0 0 0
5757 1 21.009150259423038 3.683467932137422 25.28469175147051 0 0 0
5754 1 22.87738262952388 2.6461705468408074 26.600661591622003 0 1 0
5758 1 21.967958206975357 4.923426021356129 26.36048569102886 0 0 0
5753 2 23.065917113024785 3.19306516948013 25.673336220224154 0 0 0
5752 1 23.132712163395926 2.439844635709464 24.860027724363544 0 0 0
5755 1 24.061519987851447 3.663054495881159 25.691126369071824 0 0 0
4656 1 27.957546973280387 5.009161052097927 28.74603929368786 0 0 0
4598 3 24.01177024133607 1.6455883337389383 28.752801209961696 0 0 0
5263 1 29.09724153078476 7.30293312593917 29.58418200754047 0 0 0
4596 1 22.162559797994046 1.09167043191752 28.138901204300705 0 0 0
4595 2 23.086430474064077 0.5891718506116868 28.42875897570945 0 0 0
5261 2 30.20773388515574 7.479995220955786 29.68486381303676 0 0 0
2 2 28.81693879696191 7.419385816024597 21.749488985905995 0 0 0
3 1 28.61240322225075 7.86429093748277 22.69193126608419 0 0 0
5184 1 21.278030668004376 7.9290763795862365 25.228217031995655 0 0 0
5183 3 20.758086861029188 8.41769317662711 25.886628615325726 0 0 0
1118 2 21.079797039221265 1.393828083431928 22.75012975058375 0 0 0
5 2 28.971652149926754 5.9568214267095465 21.912642401539223 0 0 0
1 1 29.674486791398717 7.779706290637289 21.178282202068207 0 0 0
6070 1 27.689194703727235 8.942097827311615 26.197655253242882 0 0 0
6067 1 26.269263159209746 8.77924942726717 27.281336336761616 0 0 0
1119 1 21.402096410415243 2.322476475266662 23.24772064963888 0 0 0
4657 1 27.052763680584864 6.39232495372754 29.327123455080866 0 0 0
4655 2 27.110592033208853 5.318939946431666 29.371683939311268 0 0 0
4599 1 24.866731775537364 1.2647695495069666 29.02760588422852 0 0 0
1872 1 26.70505357692174 1.862387897770774 29.790752764052005 0 0 0
131 2 27.553606849826338 2.0905210835408288 21.312290584746442 0 1 0
6068 2 27.224664614663947 9.339995548472109 27.11589822006152 0 0 0
4593 1 23.610210905998354 0.5037680004122215 26.35626779273911 0 0 0
129 1 26.32686161184376 3.715434668017125 22.067565386790523 0 1 0
128 2 26.283128479170237 2.941422681472002 21.298355503511196 0 1 0
1871 3 26.4413189911568 0.9971385962375072 29.42944270595243 0 0 0
1242 1 23.367196158210902 2.34918482685346 30.042155599068913 0 1 0
5262 1 30.57856592190149 7.740834905845476 28.735890575263607 0 0 0
3495 1 29.601562530725136 1.712780545563601 30.418044492224457 0 1 0
5265 1 30.228975236469886 9.328620563357513 30.143736865880705 0 0 0
6069 1 27.847044884314503 9.246464350752253 28.007445417712127 0 0 0
130 1 25.301254226192594 2.4801302090483297 21.448980373818653 0 1 0
5376 1 26.580669711932465 9.300795531521208 29.65675735494793 0 0 0
4218 1 28.457461035499506 2.363377818358668 25.851658499138185 0 1 0
4215 1 30.526162962036114 3.3506631592365532 23.79316337344765 0 1 0
4214 2 30.29767358608673 3.0712931124177354 24.798917518143202 0 1 0
4213 1 30.406750395735973 3.8675794681357987 25.46462520844752 0 1 0
1176 1 21.057746370114554 9.243353814528051 22.582207292613905 0 0 0
696 1 29.88426562827851 9.894615874432494 23.456631779049765 0 0 0
695 2 29.94799356021416 9.979272240016632 24.520898985363477 0 0 0
694 1 29.313689578378025 9.13676406385918 24.877742954958222 0 0 0
1120 1 21.447775958563547 0.6017020679591784 23.318562286785767 0 0 0
1869 1 28.077666829846343 0.015010249705824208 29.902104959311973 0 0 0
1362 1 30.59076620063847 0.05207486829718623 23.00739320866216 0 0 0
4654 1 26.20084843783638 4.90447592806627 28.797613527494637 0 0 0
1240 1 21.30907465179398 2.7959899617902764 29.80211404497251 0 1 0
5374 1 25.188346496097854 8.448240399345696 30.307174068269067 0 0 0
5375 2 25.831057137506875 9.366678880307264 30.459928799534808 0 0 0
5377 1 25.159087274055846 10.178768794056742 30.338817988575137 0 0 0
3292 1 38.382767935619064 4.552324853811086 20.492376166120582 0 0 0
5533 1 32.311932490021135 7.845787618708147 20.62917695180196 0 0 0
5532 1 32.51622426509526 9.157401102749828 21.772139804457716 0 0 0
1839 1 40.29929249110268 10.053808737848069 28.50440538459866 -1 0 0
358 1 40.38380307660898 3.2373118139841153 23.597539417104326 -1 1 0
5098 1 40.47837590840261 5.730742006685859 27.54625252593631 -1 0 0
5096 2 40.76275933622623 6.637159222691714 27.020108254135835 -1 0 0
5257 1 30.692954234700583 5.328621083693357 29.573081976561394 0 0 0
5258 2 30.97832798411251 6.249096100502335 30.146646687244047 0 0 0
9 1 30.72208882218878 5.1231743546075865 21.878795892510944 0 0 0
5103 1 40.39604158741163 9.21364384886585 26.332849660501804 -1 0 0
5102 3 39.6809820157175 8.580718167152664 25.995925865666432 -1 0 0
5099 2 39.570297756027195 7.493174184215667 26.93070481046938 -1 0 0
698 2 31.32282064573055 9.744431688272023 25.02220500010984 0 0 0
4216 1 31.025624502213716 2.27843886540697 25.124796162278756 0 1 0
2281 1 31.674784779223053 4.62800143869425 27.160358976547116 0 0 0
2280 1 31.659584870898023 5.6924780548402945 25.68322351981337 0 0 0
5874 1 32.853591685584576 3.6434984369137373 20.966919581260903 0 0 0
5104 1 40.00571674706225 1.5869815567587116 27.816092230991032 0 0 0
5110 1 38.61113765950058 2.3041144147279065 25.844789440637022 0 0 0
5106 1 38.250112000288446 1.9208228439989878 28.249961051880092 0 0 0
5821 1 37.52380652635015 7.500910649453358 24.330159102230446 -1 0 0
5100 1 38.659753079385965 6.9588415923037195 26.596970244915177 -1 0 0
5823 1 39.52242073933009 8.481883438566786 24.170101655961663 -1 0 0
5101 1 39.26984291507246 7.8479218937456015 27.91577977459768 -1 0 0
5815 1 38.05125502604023 5.316464740427142 23.560602013308927 -1 0 0
5816 2 38.787096362306016 6.063641942415546 23.350190415824525 -1 0 0
5817 1 39.61580899857096 6.021955948220328 24.022866029634006 -1 0 0
3361 1 35.642452919185054 5.8987901780744485 23.11952151507164 0 0 0
5529 1 34.990774752040394 8.538823198171446 21.591376152066843 0 0 0
5528 2 34.31847616248665 8.042963025604553 20.97114297769279 0 0 0
5819 2 38.107024478644504 7.452955994722962 23.41346373661758 -1 0 0
5820 1 37.3393537033097 7.560298297154088 22.654597198082612 -1 0 0
5822 3 39.13374392213117 8.410609011837929 23.25421561086089 -1 0 0
5531 2 32.81260750454993 8.164874801124055 21.49871370494265 0 0 0
5527 1 34.59956897851565 7.049299955505075 20.910791451284997 0 0 0
5535 1 31.5992285506012 6.856480968788934 22.42818403256259 0 0 0
5534 3 32.451553545266954 7.319344225826184 22.578387700335956 0 0 0
2284 1 33.91290068608783 6.523554977774921 26.139108983304595 0 0 0
2278 1 32.72894575501423 4.448647865732279 25.752601152848932 0 0 0
2286 1 32.12416229514377 7.670184915003947 26.66633179597059 0 0 0
2285 3 32.621788051692775 7.265346126138716 27.426981097028616 0 0 0
2282 2 33.35994859815256 6.159859486387221 26.94280374648719 0 0 0
2283 1 33.96257436184809 5.79933330769552 27.7724493301724 0 1 0
702 1 31.74432180330226 8.023499007312223 24.212400816484667 0 0 0
701 3 31.639952073736712 8.360778098088671 25.108420903267305 0 0 0
3360 1 34.20081983513497 4.9529450932431125 22.44477153534765 0 0 0
3359 2 35.0026286918045 4.962711393660223 23.1599840403821 0 0 0
3364 1 36.49602128192612 4.071920580055867 21.90116256524754 0 0 0
3362 2 35.90958934317997 3.8085772276066003 22.784347393696763 0 0 0
2279 2 32.32706860725576 5.199825579606057 26.417728702113696 0 0 0
3365 3 36.82947058994081 3.406307285045644 23.8270057060454 0 0 0
3366 1 37.04114765315156 2.4890771943481527 23.703745817661574 0 0 0
3978 1 33.628411273968254 8.912358657360125 27.527898494559654 0 0 0
5112 1 37.70299372770217 4.438903526284269 25.862488609433754 0 0 0
3363 1 35.39235688876469 2.928069016744325 22.47518099271827 0 0 0
3358 1 34.64351272360838 4.8549237992054755 24.202345001983225 0 0 0
3497 2 31.33728915377905 0.7995823833577619 29.445493774445357 0 1 0
5109 1 39.980770892661525 3.3016212087630956 25.969960486615953 0 0 0
5111 3 38.255097463834424 4.204268336203532 26.596476707140113 0 0 0
3498 1 31.51909975593695 1.7360037488703013 28.892240518410276 0 1 0
5108 2 39.07045225784294 3.0083203506930785 26.453797355785497 0 0 0
3714 1 35.73493861327752 2.2599330290978146 28.16158146686221 0 1 0
3715 1 34.867121189038514 3.423012467185111 27.203760312249678 0 1 0
5105 2 39.19008648296335 2.3225939738700476 27.868808168663747 0 0 0
3713 2 35.324252910515895 3.2207005898329992 28.235804428797902 0 1 0
3717 1 37.14522229276584 3.983913927582133 27.734608422018816 0 1 0
3716 3 36.39101607767497 4.113003870975418 28.411423255388996 0 1 0
5818 1 39.21804652306332 5.979689628479821 22.341443599963398 -1 0 0
3974 2 35.19602156084647 9.243677268690723 26.282006843656532 0 0 0
3976 1 35.63870432822934 8.337217893824516 26.73307368871053 0 0 0
3259 1 36.780978583911825 0.24455593171543805 27.122193209035363 0 0 0
3711 1 34.35306805789044 2.3482412935840293 29.860368487009104 0 1 0
3709 1 35.0583881279916 3.9764556384028706 30.179363695118134 0 1 0
3710 2 34.45599380529454 3.373697009497054 29.461501733816565 0 1 0
5107 1 39.50647793498644 2.989852200351389 28.643645353585605 0 0 0
3975 1 34.73815478270816 9.061349554626684 25.24125308055235 0 0 0
1923 1 40.12579192540274 0.8429334915028178 24.487994261662198 -1 0 0
1922 2 39.55204336494265 0.18449056413958978 23.771145717283982 -1 0 0
3499 1 32.31514202767024 0.5060670306992913 29.743776989665847 0 1 0
5677 1 35.79811587850632 1.737217952443347 20.755933479680138 -1 1 0
4513 1 35.21447260846589 8.281704196721277 29.27462848577366 -1 0 0
4511 2 35.01467301768356 8.884675829102225 30.144859008004406 -1 0 0
1924 1 40.03490102711918 0.1804286694399377 22.782760296696864 -1 0 0
4510 1 35.883257914350054 9.445818123462137 30.40446188300858 -1 0 0
4512 1 34.17618598991885 9.520729998974755 29.775204075407494 -1 0 0
3977 3 34.204017730170705 9.646761421190908 27.25122070314359 0 0 0
3973 1 37.220400641231656 9.81241333509341 25.877142065524385 0 0 0
1366 1 32.81167390389308 0.1941192806452286 22.09291104414168 0 0 0
5676 1 37.212919368071404 0.8218071770497127 21.110462665567518 -1 1 0
5260 1 32.000468447911565 6.454381541522655 29.985033155397893 0 0 0
3712 1 33.566693245253134 4.000067291965409 29.35024324098253 0 1 0
2787 1 36.99097737700642 6.610147012790079 30.352697801945837 -1 0 -1
1836 1 38.77061065487535 10.115314570822733 23.024690890783564 -1 0 0
1925 3 38.26717200323905 0.8024406667999779 23.66803536614574 -1 0 0
3264 1 34.656234070098805 1.136603385070799 26.280933164720654 0 0 0
3263 2 34.9513268325609 0.1289153670992925 26.072784283467566 0 0 0
3265 1 35.55049112824939 0.1599385427354742 25.102685027588073 0 0 0
1926 1 37.57433635516042 0.3310193231593648 23.24677403135101 -1 0 0
5675 2 36.120536731481764 0.7711094439439707 21.153715816483462 -1 1 0
5678 3 35.7154520353747 0.5908930507399909 22.51235612573596 -1 1 0
2790 1 37.31378075184709 4.346084742732824 30.126464099910983 -1 0 -1
2788 1 38.36838394617156 6.240166608283038 29.361802277969588 -1 0 -1
2786 2 37.996736088932224 6.1687403029879935 30.404968589154095 -1 0 -1
1937 2 4.573844005023742 17.121485228715628 20.630131054686537 0 0 0
1938 1 5.170169005770965 17.552400328266174 21.384310388287957 0 0 0
4996 1 8.545123885608868 12.30799699409145 25.75925972508976 0 0 0
1844 3 0.4376226422749931 10.657904958760094 26.29602003898167 0 0 0
5706 1 5.9184920636745035 12.158213193727454 20.599330487754646 0 0 0
4997 2 8.608671766626651 11.258086957379877 26.210223469022193 0 0 0
4998 1 8.35835246686956 10.511506381546925 25.457904118675447 0 0 0
4999 1 9.609185421889238 11.180416460046581 26.60539934154692 0 0 0
1843 1 1.7458656659385443 10.251049710927878 27.88628167988758 0 0 0
3694 1 9.285996410634711 17.44935666668863 21.617487988225598 0 0 0
3692 2 8.406576870408859 17.161027578393714 21.028102105009022 0 0 0
3693 1 7.4761992138987 17.2491705463786 21.70174629370235 0 0 0
3691 1 8.408287846149634 16.112447815031345 20.701393722529374 0 0 0
5713 1 8.945420344441262 11.491649440714598 22.715541846662255 0 0 0
1467 1 4.122387142481056 10.395905385904488 23.877891811268423 0 0 0
5000 2 7.71428953629663 11.184254103457155 27.445619438117003 0 0 0
5001 1 8.00364338429104 10.300679021690332 28.02260886187081 0 0 0
5003 3 6.321318202544583 11.10421899155066 27.080619404471317 0 0 0
1936 1 4.164674333224024 16.183153276201715 20.88309629591677 0 0 0
1837 1 0.2610836164531515 11.19956161460955 29.572999043695404 0 0 0
1841 2 0.9472487500340094 11.01787706060649 27.544393326267144 0 0 0
3543 1 6.357957703474317 14.64972586539216 22.888679452697776 0 0 0
1943 3 3.244351092091 19.07113798800579 21.348744501806273 0 0 0
1466 3 4.168098299174318 11.318257323800207 23.435606317673294 0 0 0
1461 1 4.248978922375669 13.363474595998687 22.205708050547436 0 0 0
3545 3 6.507972544884988 12.63165027846401 22.73307027993159 0 0 0
3538 1 5.174481363942956 14.027474835180284 24.734492219052818 0 0 0
1462 1 3.3414246305805513 13.992906313402163 23.56635920779828 0 0 0
1460 2 3.224428225501939 13.292519853648301 22.69803346943385 0 0 0
1944 1 3.31087142368748 18.648585840943298 22.234824359247106 0 0 0
1465 1 2.5417274194926933 11.46486499160305 22.045468281926027 0 0 0
1464 1 2.1897270833059 11.772184134618177 23.786565650755588 0 0 0
1463 2 2.9291918143473787 11.861156283050276 22.996416219334005 0 0 0
3546 1 5.628060755485698 12.225154564914018 22.917149833208143 0 0 0
1459 1 2.5713237122917194 13.888511800409335 22.044120176256317 0 0 0
3541 1 6.424118666538488 12.907931494698115 25.420754413144078 0 0 0
3539 2 6.197150099242058 13.828912394778088 24.829734854819876 0 0 0
5002 1 7.857772824487366 12.144265121527395 28.050933749698086 0 0 0
5004 1 5.750893177262544 11.785435242476177 27.484810353170502 0 0 0
3542 2 6.844514037622838 13.843955145653393 23.450690812157017 0 0 0
1215 1 5.445914693375557 13.155556773456128 29.238670633602272 1 0 0
3544 1 7.951672166866738 13.930217527873275 23.281351093865613 0 0 0
197 3 3.8121870300007985 18.07906177382715 23.805903674049116 0 0 0
196 1 5.7852630568795975 17.51315721831957 23.760946640639112 0 0 0
194 2 5.084116284325045 18.26257330250906 24.34001536957391 0 0 0
1208 2 2.937963973124301 14.207533399809652 29.389170401869343 1 0 0
1210 1 2.4575879912420713 15.123064644505122 29.076952494358203 1 0 0
1209 1 2.203194990302623 13.355881137020397 29.342631592349576 1 0 0
1207 1 3.436405173433307 14.288906789501747 30.27310495420917 1 0 0
195 1 5.469823283531987 19.260542664924664 24.161647047321033 0 0 0
198 1 3.187513576290877 18.029895911102056 24.503538673135193 0 0 0
1565 3 1.9456578070059278 17.774350777831163 25.564334593686805 0 0 0
1566 1 1.26072582494265 18.382239734768238 25.179079445254878 0 0 0
1562 2 1.6311810748795594 16.445663274434985 25.03556367218995 0 0 0
1559 2 0.8280811016239462 16.364201815550118 23.81949839082923 0 0 0
1214 3 4.83103413249414 12.768451765580302 28.53743370295606 1 0 0
1211 2 3.962592736257989 13.881117341341614 28.287848741060156 1 0 0
1212 1 3.429282440393374 13.540517454067317 27.387797884134464 1 0 0
1213 1 4.5627523674834345 14.813004188266133 28.116035016050446 1 0 0
1563 1 1.2772502124572505 15.814361647615291 25.857983672879858 0 0 0
191 2 5.187984841953811 17.933412802001598 25.896120357659793 0 0 0
192 1 4.374363242171218 18.428448191671833 26.37328264900679 0 0 0
193 1 6.142430154884272 18.410625723638773 26.24251501293308 0 0 0
190 1 5.342903492850118 16.86303790935888 26.036721153306136 0 0 0
2302 1 7.834928037691276 17.39504083127003 29.60881071230923 0 0 0
1564 1 2.6179362728095827 15.993831853540007 24.8482061686228 0 0 0
1842 1 1.498289933217393 11.871721293837647 27.547038078580645 0 0 0
3540 1 6.6095538608065505 14.710031075662346 25.430104381989274 0 0 0
6062 2 9.28253329735624 17.884313000488934 24.91598271664577 0 0 0
6064 1 8.311490910975778 18.301817508815166 25.244176973474683 0 0 0
6059 2 9.226058657534255 16.434375425440766 24.416176246172547 0 0 0
6060 1 8.447441809884978 16.28256961149202 23.7237978130965 0 0 0
2019 1 9.132761185885974 14.329778689782541 27.871784362897642 0 0 0
2300 2 6.8421306851724095 17.584347058042045 29.99203997209945 0 0 0
6061 1 8.986388328446214 15.904826306851348 25.296506626597672 0 0 0
2301 1 6.145254944539563 17.568836999543255 29.15922922210967 0 0 0
5711 2 9.955016547804853 11.868998677502233 22.852926731312753 0 0 0
5709 1 9.742923898452606 12.956415285139387 20.982334151967226 0 0 0
5191 1 9.54230255238716 18.843213799292965 30.408054703161287 0 -1 0
2298 1 7.3663163522828725 19.720875447154967 30.480893945788605 0 0 0
2020 1 10.005227048613694 14.819309373677413 29.332415063505312 0 0 0
5712 1 9.88805863546441 12.760313671067834 23.416018107102797 0 0 0
6063 1 9.590544078900724 18.635881482337886 24.184449435980245 0 0 0
2017 1 9.963371970232217 13.14155760076945 28.881951689498724 0 0 0
2018 2 9.990681593651587 14.148163414665646 28.479572017109888 0 0 0
5193 1 9.961976857325421 18.67634167982305 27.491431735214327 0 -1 0
5192 3 9.464421543067939 18.89282995265989 28.324202612771526 0 -1 0
1560 1 1.5721862183060682 16.692611994100368 23.044779501067858 0 0 0
1558 1 0.7086006362356322 15.301615395883827 23.42306420567287 0 0 0
1828 1 0.11863769222638013 11.593224337820981 21.794494056940504 0 0 0
1191 1 1.1055181525232791 20.26709841752819 27.090809063075426 0 0 0
2872 1 0.2426595504159155 17.60025469212416 29.135424265889377 1 0 0
306 1 1.7571160189028558 19.91541802234441 21.46316465354439 0 0 0
1197 1 0.9075993767611384 20.220884340697374 24.144324541873576 0 0 0
1196 3 0.4097308868133379 19.65698219929956 24.775896897702598 0 0 0
305 3 1.040087197081354 20.324957545975945 22.052764981310432 0 0 0
2007 1 8.593435814511837 20.378716468656844 28.348354252745 0 0 0
919 1 4.845324196439045 20.26141798019787 28.29338722463389 1 0 0
5022 1 6.565891839867091 14.749006333639711 30.503094955318016 0 0 0
5014 1 6.630914427259964 11.33668905191553 30.241587699035755 0 0 0
4063 1 13.337103113263963 17.065141390948707 22.171688229968385 0 0 0
92 2 13.748657071757878 10.497273281104224 29.11425192213953 0 0 0
91 1 13.508918404928492 10.670769065698657 30.19371559889637 0 0 0
94 1 14.070596968197854 11.421576541462949 28.57705152763239 0 0 0
5710 1 10.561761852970731 11.411930062358941 20.724497782592643 0 0 0
4068 1 13.66668476056652 18.92534817300148 20.49885587682044 0 0 0
4067 3 13.152518991122125 19.560340070518667 21.036087394039573 0 0 0
5714 3 10.815553468713933 10.879488585921855 23.417130396499186 0 0 0
2538 1 13.944976668148021 11.151817463883612 23.60679883218815 0 0 0
5715 1 11.748859055037327 11.221483161136689 23.33998719075715 0 0 0
1173 1 18.390324725763055 10.338314081509923 21.729995275852087 0 0 0
6058 1 10.311760872608927 16.213982235275576 24.14660564525733 0 0 0
6065 3 10.215413661868826 17.915196166033414 25.930907626772143 0 0 0
5708 2 10.429387688465583 12.25359895660998 21.476807883584456 0 0 0
2533 1 13.586455768871486 13.685712200699372 20.942165590460405 0 0 0
238 1 19.300916765308386 16.92467752808091 21.165058295646666 0 0 0
5707 1 11.428138093801847 12.725836499532006 21.625012704201566 0 0 0
6066 1 10.552639803944052 16.9938574084949 26.07063545089882 0 0 0
2022 1 12.156671917717073 14.085422216916841 28.36467117031947 0 0 0
2021 2 11.256066204850551 14.447755197960106 27.766533424802734 0 0 0
2023 1 11.333633416020028 13.877383244048072 26.809876340484365 0 0 0
2024 3 11.286776751401344 15.95809256531956 27.438877522905067 0 0 0
5189 2 10.236155706244498 18.600853414204888 29.51995566325432 0 -1 0
2534 2 14.446002534886953 12.880015311827055 22.851460290806614 0 0 0
2535 1 15.286138832812117 12.446221494031478 22.220560900851687 0 0 0
5187 1 12.20297508213114 18.937278496087398 28.703653533111556 0 -1 0
2536 1 14.861219838019583 13.305902770359047 23.752987683853146 0 0 0
2530 1 14.397688213132046 14.93394398051526 21.952516861402067 0 0 0
2531 2 13.788773613212808 13.989403331442196 21.984036348492822 0 0 0
236 2 18.345652766874473 17.45862940110571 21.134350463467825 0 0 0
4065 1 12.65685058361406 20.008411367828828 22.881594616199926 0 0 0
4064 2 13.217640260096951 19.189598067449804 22.38960776677633 0 0 0
235 1 17.60575104629295 16.946992656162703 21.675835653253028 0 0 0
4066 1 14.34025797762991 19.18662909381319 22.81963035426809 0 0 0
2537 3 13.46747838189701 11.86106087491811 23.15536835819425 0 0 0
5186 2 11.587360871118381 19.280321649489476 29.49455767483847 0 -1 0
2532 1 12.879896183985274 14.35160353014217 22.434723931285326 0 0 0
237 1 18.481342828411236 18.34211737345482 21.634299561585234 0 0 0
4061 2 12.635662937561781 17.810025547470875 22.692771027760948 0 0 0
4062 1 12.620772024182887 17.577912496702385 23.77612758786233 0 0 0
3375 1 17.925447494150962 13.483242320099645 28.02479652567014 0 0 0
3374 3 17.27156519270967 13.451470893113065 27.251651331276445 0 0 0
2025 1 12.245179292535855 16.240959987774445 27.41568410772116 0 0 0
4860 1 14.394651026285777 16.49872882840437 27.595064758787863 0 0 0
5481 1 15.868418490674358 14.543830412949685 27.64557942383593 0 0 0
5480 3 15.203746793044141 15.120996379866703 28.087957076667504 0 0 0
5489 3 18.411684803210626 13.865341348224895 29.542122096809653 0 0 0
5490 1 19.01492230106043 14.620310936377619 29.407189097819433 0 0 0
4859 3 13.891391953079296 17.289008719869745 27.30488654486433 0 0 0
4856 2 14.111388794918614 17.43934317606367 25.961850977803536 0 0 0
4857 1 13.736502572621237 18.407839389468226 25.659759258547243 0 0 0
4854 1 16.15941865631608 18.103059792066713 26.05366506237678 0 0 0
4858 1 13.453981741893804 16.732968190827155 25.422496265946172 0 0 0
4853 2 15.522805605391007 17.339342589991887 25.50023556168999 0 0 0
4037 2 17.64717226955334 20.267227563686752 27.147748591480976 0 0 0
4852 1 16.020430744748676 16.38078457258997 25.565898560790043 0 0 0
4855 1 15.61531220313485 17.70111339355661 24.499192608321184 0 0 0
4139 3 20.116547266331725 16.037967742417635 28.39122915647124 0 0 0
2403 1 18.86163402884534 17.823850498521725 26.072235861355043 0 0 0
4040 3 18.814882100751966 19.661680766565627 26.737959948541537 0 0 0
2402 3 19.073729822826667 16.86573284623755 26.022507380675616 0 0 0
4140 1 19.718197338324156 16.187281538485674 27.49442103256149 0 0 0
3367 1 19.051529445503938 11.507559731550542 27.02181002240087 0 0 0
5476 1 14.956574084943384 17.170442915067273 29.640760731843592 0 0 0
3369 1 18.427226060384836 12.078833002526396 25.39984045148278 0 0 0
5477 2 15.54480716496133 15.092653106390083 29.454252933369993 0 0 0
5478 1 16.60438797459877 15.199809405160519 29.59417472450895 0 0 0
5474 2 14.715929872421434 16.194943905851947 30.07919193830703 0 0 0
3371 2 17.0161796505203 12.044614138709731 26.949373076611142 0 0 0
3373 1 16.792641408799984 11.390134348877798 27.873663233317515 0 0 0
3368 2 18.262514252228428 11.471722160196421 26.241284492841995 0 0 0
4060 1 11.563674704559219 17.751226076530507 22.36747633519979 0 0 0
3372 1 16.10648202023017 11.894953421171014 26.44764569560928 0 0 0
3370 1 18.09930008971508 10.42853775323716 26.112598093971762 0 0 0
5479 1 15.199520095766607 14.14359304739475 29.81707628012934 0 0 0
5190 1 10.39125441235718 17.486831352603254 29.502817869818596 0 -1 0
1171 1 19.960196389567038 11.256187673777811 22.02818677888573 0 0 0
1172 2 19.478466702303802 10.31658842098798 21.63508164080295 0 0 0
4041 1 19.60913755575454 19.8781509437779 27.18717833992956 0 0 0
5475 1 13.605977343816058 15.948075803161736 30.07611887370105 0 0 0
2399 2 19.0856754702537 16.628156073702126 24.599880448840395 0 0 0
2400 1 19.4035808855594 17.519810347400895 24.088393024604706 0 0 0
2401 1 18.025847979220888 16.41841805086889 24.25878953983754 0 0 0
5185 1 11.429663706047773 20.366230301655506 29.35858298481487 0 -1 0
4038 1 17.063204530647123 19.541580401286858 27.782770349908866 0 0 0
2396 2 20.00457924720713 15.381674551228295 24.299956259158858 0 0 0
2397 1 19.4394804087056 14.505205609069087 24.711856161887503 0 0 0
2395 1 20.146352065375776 15.255130281582575 23.21216161766384 0 0 0
5488 1 19.66882464247042 12.311696641540093 29.97460836481097 0 0 0
5486 2 18.9030547295269 12.948874030546774 30.492403692614573 0 0 0
5188 1 12.115236795012684 19.211857879852058 30.475020646608716 0 -1 0
5485 1 17.29044603130112 11.573314163617278 30.018177585203098 0 0 0
5436 1 26.61125938658856 17.478228119891448 20.494726998992764 0 0 0
5435 3 26.82284565046287 18.30693239597248 21.000144069297598 0 0 0
2970 1 25.077286098813023 18.46413359844869 21.438324400145575 0 0 0
2969 3 24.087355768169633 18.298174052490975 21.42050412164094 0 0 0
5434 1 28.21530914163329 19.72199811046749 21.01590203726228 0 0 0
2998 1 25.19150881467837 10.30741535539397 20.658577718823494 0 0 0
4136 2 21.219110241925854 17.04996489591923 28.445723133912356 0 0 0
4133 2 21.99033031752718 16.69053439850686 29.628883452343242 0 0 0
4137 1 20.718867243243377 18.020132971696242 28.475662127612082 0 0 0
2966 2 23.48472388472024 19.034739265856906 22.45943102397001 0 0 0
414 1 27.433258219436922 18.518735644303174 22.650867563310868 0 0 0
2968 1 24.16398828051534 19.496532071281518 23.19235799035429 0 0 0
5286 1 24.382003326270713 15.400856415536195 20.8471510702602 0 0 0
5285 2 25.389539301359093 15.111941214999876 21.20056548025697 0 0 0
5287 1 25.75839575978739 15.95886063418398 21.79983116041746 0 0 0
2398 1 21.002963053251154 15.465306486440829 24.74265760962597 0 0 0
413 3 27.772683476178965 18.601579894949342 23.577798136390065 0 0 0
411 1 25.95272050750452 19.172310226471943 24.40078406693036 0 0 0
410 2 26.974053894845014 19.469130102935058 24.41228952616332 0 0 0
2967 1 22.900088018360876 19.814163118188674 22.061920956967562 0 0 0
3001 1 25.726491366335846 10.66373912314488 22.28719459526937 0 0 0
2965 1 23.372594936533755 17.32764704189867 23.582271206500824 0 0 0
2963 2 22.64702565546927 18.07487823371099 23.320592015860754 0 0 0
633 1 21.346902538391426 14.273835734801027 20.97613243975884 0 0 0
2964 1 22.337166732088956 18.606469783813125 24.318081335082567 0 0 0
5284 1 25.353452456762643 14.260722979594089 21.909711796313363 0 0 0
631 1 21.154822172459152 13.411694986449982 22.395581280948207 0 0 0
1773 1 29.00987876767566 10.92060445724499 28.31279985613829 0 0 0
6123 1 29.052580605709935 10.899331768783336 20.74167487557789 0 0 0
639 1 23.26502511947261 10.923391690098473 21.982119738017825 0 0 0
636 1 21.9862190453247 11.806223771737733 20.586492967095314 0 0 0
638 3 23.10716357586874 11.818114929236796 22.36839530655248 0 0 0
635 2 22.660172055449035 12.514600510190876 21.226106359567034 0 0 0
637 1 23.452625876759193 12.766702674715837 20.556446379618023 0 0 0
632 2 21.881369955096137 13.750595200006124 21.707641636830463 0 0 0
2428 1 21.993118996459888 12.075796449543398 25.8085441615823 0 1 0
634 1 22.480014863649426 14.46111479939764 22.248506565053624 0 0 0
2422 1 22.490133719566852 11.264330512380267 28.06523940605154 0 1 0
2425 1 24.16451270706716 11.02592909074623 27.621112003667903 0 1 0
2424 1 23.466019115333307 12.659439039268491 27.753090212252353 0 1 0
2423 2 23.274121271906672 11.611620634463959 27.433068335412486 0 1 0
2427 1 22.569686108540434 10.486057542746131 25.87609932578253 0 1 0
2426 2 22.86918736672033 11.496210503960297 26.021317981297795 0 1 0
6074 3 28.217568404875873 11.470733817208476 26.81669955029062 0 0 0
6075 1 28.1546034393121 12.287501735226861 26.25494692536322 0 0 0
267 1 23.2378286129676 15.011635067905397 26.61585643165532 0 1 0
266 2 24.01552154606317 15.313071665671847 25.893020238832367 0 1 0
269 3 25.013620626180575 14.291643917908997 25.92781417072556 0 1 0
270 1 24.639970284058045 13.461604705845271 25.510459711755242 0 1 0
263 2 24.66197081386342 16.62650403904449 26.352249830816483 0 1 0
264 1 25.58299948964667 16.84656680797673 25.851540145817346 0 1 0
2430 1 23.491028937253105 11.940029420332237 24.34185949638339 0 1 0
2429 3 23.882786383731453 11.923528689441158 25.200039061029624 0 1 0
2814 1 29.48954716824985 14.870191508170963 26.05311914674309 0 1 0
265 1 24.73333063873389 16.564629316200914 27.453851287630233 0 1 0
262 1 24.028547101567973 17.45662949926034 26.017985621376546 0 1 0
268 1 23.561632020389748 15.339658691509788 24.874887831558564 0 1 0
2817 1 26.91105636724909 13.894092800238564 25.714430463815237 0 1 0
2816 3 27.834924193587277 13.70734684838314 25.6110010789904 0 1 0
2813 2 28.51851807029116 14.993247479262712 25.5432091140559 0 1 0
2815 1 27.95758140772034 15.796653779928137 26.171250305278043 0 1 0
5409 1 28.50257441713421 20.02651059636431 29.435039739606648 0 0 0
2810 2 28.92893785106382 15.423408714040308 24.161683858435964 0 1 0
5576 2 26.99060218537594 17.512598567464657 30.116187662981712 0 0 0
5572 1 28.528042184212705 16.979631090787617 28.6707795319782 0 0 0
5573 2 27.537912920595698 16.682729087550637 28.910190823759162 0 0 0
406 1 27.663380349723578 18.494631817144434 26.339774851997085 0 0 0
407 2 27.59256150404528 19.472606000371464 25.842498364446147 0 0 0
6072 1 26.484765888241775 10.843506114124644 25.776371691512203 0 0 0
6071 2 26.95704553097348 10.79653115641308 26.81610441405946 0 0 0
6073 1 26.322802795357997 11.311714287999889 27.587351998707696 0 0 0
5575 1 27.456249164916606 15.631247717534228 29.118834896867334 0 0 0
5574 1 26.89519911661356 16.8839670653152 28.048267182712568 0 0 0
2812 1 29.58587844371453 14.658864501628763 23.698788173078345 0 1 0
1772 3 29.5182552976677 10.727476822719982 29.100943240645027 0 0 0
4663 1 24.67286229481133 12.83011159573245 29.84441728069264 0 0 0
4664 2 25.052266732820314 13.788857195892886 30.318832613250432 0 0 0
4665 1 26.188615827505863 13.703432263525675 30.31441562994032 0 0 0
2811 1 28.03848461398562 15.556096684119584 23.62875890867608 0 1 0
2809 1 29.425634586822294 16.3812020666201 24.171885588343294 0 1 0
1768 1 29.47962028083807 13.012632642894456 27.760422739039928 0 0 0
2962 1 21.807900061723583 17.68496057511351 22.720936729661044 0 0 0
5254 1 22.499693011923775 19.341193291404977 27.777975108286547 0 0 0
4666 1 24.83414689877676 14.72029933045455 29.771045315553295 0 0 0
1766 2 30.00851976412734 13.072259158345494 28.671933185111843 0 0 0
1767 1 29.29140733203899 13.354813085348571 29.477784370103944 0 0 0
1769 2 30.556214787944892 11.767469422645553 29.120933220370315 0 0 0
408 1 27.03317979191269 20.084361354900647 26.608539286969194 0 0 0
409 1 28.513613513059127 19.98509116114409 25.644809466686745 0 0 0
4138 1 21.822264449653808 17.001099005869925 27.486609816858152 0 0 0
697 1 29.635681874637513 10.957443703738177 24.86292667080304 0 0 0
4129 1 30.46071862347025 19.57435875928278 26.920760045750498 0 0 0
4134 1 22.383614566043516 15.68916080481926 29.546688029634428 0 0 0
4132 1 22.879859479959745 17.426575874310714 29.49413552160149 0 0 0
5579 3 27.424447207161005 18.851644406435767 30.068500771085503 0 0 0
5577 1 25.881507904242888 17.38310208048169 30.16967721634085 0 0 0
3240 1 37.5076273187706 17.010139475020953 20.546950658462286 0 0 0
1838 2 40.69035129343388 11.086081516976037 28.585313659530655 -1 0 0
1561 1 40.609280741055365 16.857071765948138 23.756068419356886 -1 0 0
1771 1 30.885728568715777 11.764134251454083 30.116810786514794 0 0 0
4125 1 30.634191201908443 17.785885003658795 25.16983474158492 0 0 0
699 1 32.00667398231964 10.349616465625811 24.429077946263696 0 0 0
1845 1 40.46933550172727 11.24127156887867 26.08231712460762 -1 0 0
700 1 31.428616187626293 10.24274603986941 25.98811568151985 0 0 0
1833 1 38.696345506821004 12.739063279190004 22.046256260814232 -1 0 0
1832 2 38.79737886659127 11.703698312926596 21.867155472484473 -1 0 0
1829 2 40.03789510811595 11.351668066343763 21.16140119189022 -1 0 0
4738 1 37.66239694332754 13.630746811655305 23.985803409000162 -1 0 0
1840 1 39.91207005142434 11.815122660957371 28.406870390434424 -1 0 0
1765 1 30.790080271518438 13.811706835647778 28.54896350224766 0 0 0
3970 1 36.28484740459748 10.992097668867 26.996599131818723 0 0 0
4735 1 37.00345362316231 14.571514324778349 25.22749645448786 -1 0 0
4126 1 31.34358422929656 17.375496479707145 26.754540365172435 0 0 0
3239 3 37.048958846605785 17.026411428257997 21.40862985600938 0 0 0
5229 1 35.482285871539375 18.436293269354426 21.408248641926946 0 0 0
5228 3 34.563999107754086 18.411370048703056 21.144523244453897 0 0 0
3972 1 35.970886283942285 10.89688733776944 25.322226932825817 0 0 0
3971 2 36.26136411715387 10.292129912288448 26.10746236741509 0 0 0
4740 1 39.562530047939 14.090245661750311 25.788814171268157 -1 0 0
4742 3 39.051434597668674 11.967165503076446 25.662699162219706 -1 0 0
5223 1 32.42276485904547 16.83371697809571 20.79560416878803 0 0 0
3235 1 37.81086505098386 19.41335320261346 22.33351251230123 0 0 0
3232 1 39.32666708935982 18.797888443308672 21.481694634311133 0 0 0
5227 1 34.51776851992468 16.808370638297028 22.49213180546363 0 0 0
5225 2 33.90139907462865 17.69371513813693 22.20207116572017 0 0 0
5222 2 32.488610598081 17.35028783571311 21.812323248349824 0 0 0
4741 1 38.40430942941401 13.462500233939425 26.984975308568334 -1 0 0
4739 2 38.75415826049848 13.329701409939933 25.93209805287787 -1 0 0
4737 1 36.73269771579606 12.864590992819673 25.270366488492066 -1 0 0
4736 2 37.47683879203474 13.61856622820565 25.08259773344458 -1 0 0
3236 2 38.07952675846572 17.278294479612374 22.368609668723494 0 0 0
3238 1 37.612903580178475 17.1184897178478 23.288688019567683 0 0 0
3237 1 38.86205073217676 16.548982715277713 22.189955955843047 0 0 0
4743 1 38.724384864193034 11.628947913547016 24.809393335843474 -1 0 0
3234 1 39.2782392638419 18.960406540543215 23.17481511525911 0 0 0
3233 2 38.66814783582313 18.658135039579932 22.28725586211324 0 0 0
1834 1 37.94010217581136 11.46888356215982 21.210109034650728 -1 0 0
1770 1 31.388384863018008 11.462666998306199 28.529998160601853 0 0 0
576 1 33.60619260644076 11.620316315067738 27.495725776364722 0 0 0
1835 3 38.51579773759504 11.07276744679584 23.116437943940664 -1 0 0
571 1 33.8641843756121 15.25838819454019 25.76391214755096 0 0 0
5226 1 33.94238507431303 18.37653639263988 23.057997162878227 0 0 0
5221 1 32.00446469599592 16.724951251223022 22.599073232494813 0 0 0
1831 1 40.116556020470206 10.309484618994306 21.031989669757824 -1 0 0
5224 1 32.03337335161578 18.303703094955885 21.583174814245016 0 0 0
570 1 33.476405627629156 15.22291588978558 27.482378380470916 0 0 0
568 1 34.9467179665356 14.58398129543547 26.83821303469407 0 0 0
569 2 33.91169338854612 14.643090050300607 26.643423210725327 0 0 0
573 1 32.088020913784305 13.685652077014867 26.602340930516622 0 0 0
572 2 33.141568237916495 13.369301103691235 26.525044994796044 0 0 0
574 1 33.36177130959132 12.715420385911775 25.70802608705526 0 0 0
575 3 33.36376408848643 12.579153204633899 27.749422892011832 0 0 0
832 1 37.1451017248658 19.214987710502694 26.422076513487568 0 0 0
1547 3 33.577806336938494 14.054260767228127 30.067659582636253 0 0 0
1548 1 33.3203993508129 13.408402391490794 29.338323892253523 0 0 0
2880 1 37.58615027543493 16.980066931373454 29.918318198120232 0 0 0
2876 2 39.090414006669086 17.063553870617113 28.59701894135425 0 0 0
3245 2 35.05264119731295 16.964212342510706 30.348949033831435 0 0 0
3249 1 35.276093692937934 15.220981656135985 29.437857537581895 0 0 0
835 1 35.20158926394986 17.523288897061505 26.28661122978628 0 0 0
830 2 36.87666971457854 18.690835429324455 25.496170753730635 0 0 0
833 2 35.44119883144469 18.170612220515974 25.398906123195275 0 0 0
834 1 35.52659358888106 17.510385964081525 24.536916449341053 0 0 0
829 1 37.058829741978684 19.27777404508396 24.599975137723217 0 0 0
831 1 37.56903353570574 17.774188508707823 25.420873448057414 0 0 0
836 3 34.470477560570515 19.15444661290943 25.197904636248648 0 0 0
3243 1 33.37164823412834 18.3639959753928 30.025183793893284 0 0 0
3242 2 34.13931818783291 17.796399442968784 29.469109663690034 0 0 0
3241 1 34.655408354638645 18.554764465180774 28.887556372967417 0 0 0
3244 1 33.648957071187496 17.140226710334957 28.811179585816575 0 0 0
2877 1 38.34866079859889 17.040586372661192 27.819916214933528 0 0 0
837 1 33.914544956995 19.392317590961106 26.002845443086112 0 0 0
1416 1 37.22894735755102 19.73790235131535 29.192780307061142 -1 0 0
4123 1 32.40445009415773 17.747598170433772 25.482517552013384 0 0 0
4124 2 31.388361361193816 17.979368180554182 25.855849457373555 0 0 0
3248 3 35.881607241736724 15.987737463531083 29.669627411395503 0 0 0
2874 1 40.138193657943 19.03190964727919 28.37788821320806 0 0 0
2873 2 40.27429209733945 17.95173960858413 28.33957040338397 0 0 0
2875 1 40.675022825855784 17.664790274389098 27.28110757258015 0 0 0
4127 2 31.386445502078953 19.44407362680671 26.32593461900812 0 0 0
4130 3 32.57107565613552 19.842671238141776 27.06329055509859 0 0 0
4131 1 32.234020417705246 20.020511073859755 27.992237181279986 0 0 0
2105 3 31.681933182596207 20.1227843025388 29.58336770010145 0 0 0
1194 1 39.62422277493663 19.85666842833594 26.016350264032422 -1 0 0
4128 1 31.20061427098017 20.046221806372664 25.453016165138802 0 0 0
2879 3 38.45789561950856 17.407918868709352 29.81834282072098 0 0 0
2878 1 39.47346186640479 16.086534311729586 28.672913517005927 0 0 0
3225 1 36.750146685144784 11.753698337660351 29.798497156494975 0 1 0
3223 1 37.732587415187304 12.876230332621072 29.04026515295085 0 1 0
3226 1 38.483982428771064 11.556098671458987 29.963441206684813 0 1 0
3224 2 37.6724394148839 12.300228161226064 29.929659435056237 0 1 0
5005 1 4.391311339360702 22.186499114667516 20.650676564562776 0 0 0
4248 1 7.202700810228731 23.124695933573694 20.462150957653453 0 0 0
277 1 6.811123978823615 27.551954553802126 22.187189933133592 0 0 0
304 1 0.917765525521906 21.76451152600265 20.468773591278804 0 0 0
302 2 0.28638191532541923 21.196994734505473 21.217658794471966 0 0 0
4558 1 4.767983368567477 30.148235369241405 20.677648094372643 1 0 0
2123 3 8.849738072110151 25.413435803364703 20.553312772122357 0 0 0
4247 3 7.641228990234384 23.20513048892712 21.331330113919755 1 0 0
2124 1 8.66442617289637 24.438447779208733 20.65675640195658 0 0 0
4245 1 8.674817837950606 21.422701833444304 20.837363855954273 0 0 0
4246 1 7.09841367652923 21.292368072924578 21.907929372621272 1 0 0
4244 2 8.04448724779579 21.830095366222995 21.699279316706832 1 0 0
4242 1 8.335597214057108 22.195263157390333 23.70115862996548 1 0 0
4241 2 8.950778388811287 21.969035085889473 22.869206746913473 1 0 0
2120 2 10.062639863273102 25.876733416967475 21.15849106769632 0 0 0
4240 1 9.412917246523817 21.030392989347632 23.1378973233931 1 0 0
4243 1 9.696232566827579 22.809937879564956 22.816530678328757 1 0 0
279 1 6.968705401043897 25.0731309699133 22.06148701113315 0 0 0
2005 1 7.886232013596319 21.017050946009984 26.174303009897102 0 0 0
2004 1 7.633041739608221 22.59184947123945 26.935561148407352 0 0 0
2003 2 8.248143140121684 21.749057445284926 26.91359909528747 0 0 0
2006 3 8.07798079710371 21.24818980790782 28.23060778262113 0 0 0
1999 1 9.768853154009374 22.39432974493713 25.615082225438695 0 0 0
2000 2 9.707674012126855 22.070009486415586 26.64435447095558 0 0 0
273 1 4.415202184955187 28.26014322241421 22.66424930056568 0 0 0
274 1 5.427371897788139 27.50794646163779 23.90513927924872 0 0 0
272 2 4.957675646279557 27.298941505352293 22.9567675535362 0 0 0
271 1 4.241063629910815 26.46576795272237 22.966967882126003 0 0 0
5804 3 1.4049777929585963 22.957271909802813 29.408624022008983 1 0 0
276 1 5.72628992013342 26.661006549673495 21.012334491023022 0 0 0
275 2 6.0323159297976705 26.816374347537664 22.061898515741536 0 0 0
278 3 6.430246286024335 25.58347753577798 22.690265815595005 0 0 0
927 1 2.563984724752855 22.966422112554625 28.24342322236431 1 0 0
486 1 7.403967248022655 24.432644379873647 24.42610425990085 0 0 0
478 1 5.554263956187522 25.37008573933019 27.55183295765781 0 0 0
481 1 7.243638738712922 24.750999776602697 27.782385468970496 0 0 0
926 3 3.325094992513678 23.15020856366133 27.696639068946716 1 0 0
479 2 6.618832385898482 25.50714383615535 27.273588953237986 0 0 0
480 1 6.922937049727152 26.46600937668867 27.640446375113694 0 0 0
484 1 7.979065742528447 25.95906568738599 25.765019594023652 0 0 0
483 1 6.327674555851446 26.162426892152368 25.353759741514054 0 0 0
485 3 7.122262289952367 24.190371779732985 25.32092617626188 0 0 0
482 2 7.047872732263385 25.476266983411982 25.847268766995086 0 0 0
2068 1 4.7109890646634485 22.46131982739761 25.669925141044896 1 0 0
2066 2 4.107857782337118 22.264268184570053 24.799362555640545 1 0 0
2062 1 5.374166767457068 23.474472755405124 23.48560662126621 1 0 0
2065 1 5.755011067993028 21.76135606252846 23.72297143403557 1 0 0
2070 1 2.955286923734774 23.186509000156395 25.92666760435977 0 0 0
2069 3 2.9916299649684874 23.140521501783738 24.96890451989206 1 0 0
2063 2 5.031746945962078 22.50165100968316 23.55604113681881 1 0 0
2067 1 3.741695210468895 21.23595845088264 24.79661437052752 1 0 0
4266 1 2.686734836138353 24.729774108368968 24.1907715928707 0 0 0
2064 1 4.538694882027169 22.264816716122883 22.56698913146801 1 0 0
3150 1 8.687480830001798 22.15758106347091 29.834078581622265 1 0 0
923 2 4.329539555281445 22.346072299205264 28.241613508588237 1 0 0
2136 1 5.1479708815504415 30.590959764112903 23.496437077540968 0 0 0
920 2 3.9895300575790587 20.830069609735467 27.99001831101067 1 0 0
921 1 3.867420046472301 20.65665823562748 26.898752774427397 1 0 0
1449 1 1.978704127049202 28.57581118041725 26.35275586814539 1 0 0
924 1 4.455662616643231 22.61010145062549 29.303917795456655 1 0 0
922 1 3.039106125122226 20.662631153779266 28.503229330752564 1 0 0
1448 3 2.603875218184533 29.111136592182113 26.979681055210296 1 0 0
1446 1 3.8269177612741294 30.253360396152875 25.713059233740434 1 0 0
5072 2 9.1907696755979 26.068213821089262 30.08022550186984 0 0 0
5073 1 9.050124238458753 27.148669470567512 30.530134305050517 0 0 0
1445 2 3.8330543843582343 29.285071299788232 26.195944767875467 1 0 0
1444 1 5.156792623769933 28.114982572258118 27.55968851163361 1 0 0
1447 1 3.8860027061191724 28.552086713941346 25.36343332918114 1 0 0
1442 2 5.061639771761035 29.080756306825553 27.075213801663192 1 0 0
5175 1 2.20529270056649 28.186917569364105 28.291155252801612 1 0 -1
4265 3 2.2100705601142514 25.55018833098543 23.82904417801315 0 0 0
925 1 5.237934900775647 22.663059542014235 27.752171604726566 1 0 0
5805 1 0.992632338617733 23.775464011232312 29.2846326190268 1 0 0
3780 1 1.0191378232831863 26.200387606915605 28.799020194541146 0 0 0
5170 1 2.6623021703884775 30.221264010239363 29.79476826962626 1 0 -1
5174 3 1.7819282351033885 27.78067081120099 29.079108852586916 1 0 -1
1135 1 8.615115315334824 29.12481004375501 26.790287422277146 0 0 0
3149 3 9.126028439918759 22.632098714897836 30.54761350842397 1 0 0
5171 2 2.738433035967821 28.00047553291984 30.117466833086475 1 0 -1
5172 1 3.77643825674182 27.719920590216706 29.698410171161864 1 0 -1
2116 1 8.94884697555772 27.143831320970875 22.56684836728813 0 0 0
5074 1 8.225747200689007 25.934189061012585 29.597922863502802 0 0 0
2002 1 9.981953137487201 22.904567610156757 27.238838359898892 0 0 0
2117 2 9.802465442064438 27.162870164852887 21.857155284941925 0 0 0
6021 1 1.182822874266742 27.053737469469105 24.804156066111503 0 0 0
6020 3 0.6746823695131371 27.696001943138622 25.35217808328005 0 0 0
4261 1 2.6953252931407663 23.667095883635863 21.819884921571585 0 0 0
4259 2 1.8583879702295243 24.370416954512308 21.6245921143271 0 0 0
4260 1 1.045086766821761 23.769214212045156 21.070821557337123 0 0 0
4258 1 2.2484050191866567 25.020588089432916 20.897483012506047 0 0 0
1189 1 1.1168806539928537 21.767930895236262 26.26940244788344 0 0 0
4264 1 0.5777366127249477 24.52036045792271 23.35456653814323 0 0 0
4262 2 1.2581939421916863 25.151568410042415 22.81692282104682 0 0 0
4263 1 0.6642493703261223 26.009920031369266 22.475937140458548 0 0 0
3779 3 0.5223931304966434 25.367105492633755 28.93345787547635 0 0 0
5168 2 2.6073010462095754 29.458260837617853 30.591801106719245 1 0 -1
5070 1 9.917291770004088 26.865602970113976 28.322673935446208 0 0 0
2118 1 9.666330894715218 28.02788602654809 21.171333557736073 0 0 0
5124 1 10.039766091429732 26.935328299895648 25.004020398510562 0 0 0
6019 1 0.35391084227168135 29.370990461497613 24.27305813529264 0 0 0
3772 1 0.48923519708002927 24.96114865433646 26.10659492055801 0 0 0
300 1 0.006491014224181413 22.752232678083 22.788903464116007 0 0 0
1190 2 0.49147041587337403 21.104361779262852 26.8063017094471 0 0 0
3775 1 0.04432188333550606 23.513377131470232 27.053826452459866 0 0 0
1443 1 5.956201423160961 29.264378894279158 26.45663207144923 1 0 0
1441 1 5.077440904148276 29.863851100562943 27.869163842148154 1 0 0
1138 1 8.714605180710084 30.3273813299926 28.183583842723305 0 0 0
1136 2 8.518449115408288 30.18049381673433 27.098102959858625 0 0 0
2139 1 7.567170254525218 30.045072200953168 22.825742327592327 0 0 0
2739 1 15.686743530949169 23.484581528504034 21.463772606723058 0 0 0
4039 1 17.007967420462453 20.41852205108545 26.28061334495695 0 0 0
4033 1 18.58212386746974 22.15081790941598 27.32390264911627 0 0 0
2937 1 14.45289167959427 20.51674334222739 24.74661428837654 0 -1 0
2122 1 10.343572940158738 25.084610433849797 21.82228842855873 0 0 0
2001 1 10.298037447993654 21.23146298865771 26.965166647037883 0 0 0
2119 1 10.614448209743303 27.501834411609007 22.520535883766318 0 0 0
4034 2 17.925751996156713 21.513063492220052 27.916512452562905 0 0 0
5069 2 10.333389456379065 26.23850169119488 29.11393029777786 0 0 0
2738 2 15.331378441144992 24.16550436788478 22.277723668814705 0 0 0
4036 1 16.90642124634554 22.041277484622704 28.069127966640004 0 0 0
4035 1 18.35769889381118 21.24290095904158 28.912091068480763 0 0 0
250 1 18.752242407497313 25.449526608343902 21.296097866881258 0 0 0
2935 1 15.120460786661589 21.517561512519034 26.030778716425974 0 -1 0
249 1 17.649407806587583 26.8968665897364 21.185018957082008 0 0 0
248 2 18.577873510948383 26.458661403337665 21.618467596519935 0 0 0
2940 1 13.041455552509941 22.204555496224017 24.23212366328967 0 -1 0
2737 1 15.986635669649718 24.93243019637521 22.63249398500057 0 0 0
2740 1 14.956088735858003 23.516158445618128 23.08500964593195 0 0 0
2379 1 11.630886188798492 29.729952616830612 21.48719839821626 0 0 0
2380 1 13.196155856738892 30.589181976452718 21.463213374316418 0 0 0
2378 2 12.392291110613982 30.192449652597404 20.8803678228984 0 0 0
2742 1 14.51810644209985 25.448798021007093 20.64602278726805 0 0 0
5416 1 19.064493103716803 23.81612347317498 23.215383879303126 0 0 0
1266 1 12.315856785406773 22.526315532938906 28.72196985214687 0 0 0
5415 1 18.947810157568913 22.39776583607832 22.11555409383574 0 0 0
5410 1 17.9463287680394 21.280700126231853 24.23985606379198 0 0 0
5500 1 16.56046192475151 27.75910569532851 27.747312878315864 0 -1 0
1261 1 13.419142847485798 24.809126141280206 30.392241092387433 0 0 0
5412 1 16.901789179827333 22.247905722952034 23.402063190159765 0 0 0
5411 2 17.867580793683434 22.28268680341198 23.9915738261212 0 0 0
5413 1 17.708522095802543 22.81224631615194 24.909919525143252 0 0 0
5503 1 17.874071891611802 26.577998119973515 27.364505799220762 0 -1 -1
5501 2 16.839899269508606 26.859607147243764 27.154453361557294 0 -1 -1
5502 1 16.7199505571415 27.06485438263364 26.11535133005178 0 -1 -1
5414 2 19.0200706952577 22.742942417132934 23.13004533871034 0 0 0
5506 1 16.05653867959935 24.92001102746256 26.56374078483257 0 -1 -1
2741 2 14.248854765751126 24.92438080766661 21.580415845732507 0 0 0
2743 1 13.383235464998332 24.31354949138166 21.292013602236686 0 0 0
2744 3 13.718405794300688 25.90863234253106 22.494367194470538 0 0 0
2745 1 14.468725267484725 26.454831402755378 22.847435506907868 0 0 0
2938 1 13.856666637826862 20.45460396415872 26.48994960435339 0 -1 0
5508 1 15.360332295821362 24.431065258458737 28.644561304099035 0 -1 -1
1268 3 14.166212411021949 23.31935882374146 28.197050814464266 0 0 0
1269 1 14.008296376357663 23.519343334947546 27.13540406376994 0 0 0
2942 3 13.813196831980008 23.46897615164069 25.693708594236814 0 -1 0
2939 2 13.193903093269183 22.20284432108912 25.286176321859188 0 -1 0
2936 2 14.240823877759455 21.091224617661666 25.669210533917674 0 -1 0
2941 1 12.25162399585783 22.07792589482426 25.87623208811916 0 -1 0
2943 1 13.15222986457114 24.142961607148195 25.520813249907214 0 -1 0
5504 2 15.962975605305207 25.675305922389423 27.312447118591656 0 -1 -1
5507 3 16.06410134122891 25.099584508522902 28.61840795220737 0 -1 -1
5505 1 14.935184490456818 26.039438358643583 27.13403675396998 0 -1 -1
5129 3 12.050169797750879 25.222041742005747 24.633739943834524 0 0 0
5130 1 12.301303168648875 25.528795070111915 23.74586194470329 0 -1 0
1764 1 16.135474489813397 26.263435257578852 29.788780202120233 0 -1 0
1265 2 12.875587397647871 23.449739284432358 28.850018152544827 0 0 0
1262 2 13.045167556300973 23.78931533926696 30.27367335925039 0 0 0
1267 1 12.296180565721308 24.263084815385263 28.429979455834165 0 0 0
5126 2 11.906342653752171 26.263192941745796 25.58546637289217 0 0 0
5128 1 11.466776260982302 25.804742828689285 26.474760509721534 0 0 0
5123 2 10.96082004671322 27.410311477056254 25.21894376823422 0 0 0
5122 1 10.829463343515064 27.93306564312629 26.129916358056963 0 0 0
5127 1 12.920924244566491 26.78586967019665 25.72574858410699 0 0 0
5125 1 11.173052022829832 27.98272058365898 24.343174043099925 0 0 0
3401 3 15.832370417838701 27.063465663642855 23.962191703420743 0 0 0
3402 1 16.657461388258508 26.53548570953471 23.741440686222262 0 0 0
3398 2 16.173773286331336 28.445969293863314 24.065955235669005 0 0 0
3400 1 16.745168445176386 28.690087055198084 24.976446510684017 0 0 0
3399 1 16.976925842121886 28.538745491511467 23.243647888054415 0 0 0
3395 2 14.973404073764883 29.284743745565784 23.99322724649567 0 0 0
251 3 18.409650291897215 26.47388656293147 23.02959923912153 0 0 0
3396 1 14.263621492526326 29.19281010495458 24.839792950559097 0 0 0
252 1 19.109003540339778 26.887557361595874 23.535302733512715 0 0 0
5071 1 10.666272074083068 25.438487332835866 28.505160820575053 0 0 0
3397 1 14.34801982109632 29.07150824988901 23.11827569641609 0 0 0
1756 1 13.503074224416457 27.07856790629548 30.459116689044578 0 -1 0
2220 1 19.595204113550032 24.38662213293457 25.123466656613918 0 0 0
5417 3 20.26640038274766 22.09570973415614 23.546891792254762 0 0 0
4525 1 19.24307136374673 28.200281930020633 26.340618745486392 0 0 0
245 2 19.659738735050034 27.39270348947989 21.09544656171401 0 0 0
4523 2 20.211052652036233 28.271311834934373 25.751005958557602 0 0 0
246 1 19.566439962741853 28.329368287584288 21.543498322077948 0 0 0
2218 1 20.25633584567325 25.98193612911286 27.003429080854435 0 0 0
2217 1 19.45328626820576 24.504675202687313 27.811861761109657 0 0 0
4519 1 19.273218184796637 29.905607211346556 24.595013946219897 0 0 0
2216 2 20.342037599259488 24.869189346035057 27.22234838745756 0 0 0
4520 2 20.202394400426776 29.582481185527865 25.120584992177275 0 0 0
4526 3 20.181489875414997 27.242503203759167 24.78839441114045 0 0 0
4527 1 20.182811733479234 26.376044913849178 25.186798176752788 0 0 0
1141 1 10.64077846725369 30.585336791768242 27.03047896406397 0 0 0
3394 1 15.323226019071079 30.331537166610442 23.954606123929505 0 0 0
868 1 15.75138620327842 30.354029406094224 28.12828873118498 0 -1 0
5068 1 11.278876079431758 26.74815043147619 29.455565738664692 0 0 0
1763 3 16.375878641071935 26.89786305991865 30.560447352628255 0 -1 0
1761 1 15.942493958411493 28.92690918327213 30.41403271008203 0 -1 0
1758 1 14.339308908481135 27.451945714763934 28.94989050501264 0 -1 0
1757 2 14.18474130821927 27.855650517684627 29.94725702384566 0 -1 0
1759 1 13.547508575243283 28.812823031415643 29.916036045827152 0 -1 0
4468 1 18.31209496550139 30.338314006038303 30.141977871948658 0 0 0
3979 1 20.467784994846614 21.061960602919154 20.983771744483434 0 0 0
5398 1 21.632622711857106 29.117948953655322 20.603811949822305 0 0 0
5397 1 23.424363824280963 29.665132391273172 20.396080040269048 0 0 0
5396 2 22.416381052748267 29.920816319215028 20.694944247363853 0 0 0
5248 1 23.17194134110371 20.69448252545519 29.665805692793914 0 0 0
5249 2 23.432035259159488 21.069909382152712 28.679815871109074 0 0 0
5251 1 24.449542082591982 20.78532369372868 28.369876541420485 0 0 0
5250 1 23.435760862614735 22.156385640838558 28.704954922236908 0 0 0
5255 3 21.07310130062826 20.752213369614843 27.881607828047166 0 0 0
5252 2 22.481515857121686 20.446603919145375 27.677353864002995 0 0 0
5253 1 22.708872559912525 20.745785560717266 26.718271911816192 0 0 0
3672 1 21.77731520055743 23.35235278526145 21.3026828681448 0 0 0
3670 1 23.830731688443073 23.831069836118605 23.129154056840672 0 0 0
3718 1 29.581937631080752 22.849652289667382 22.18309894476781 0 0 0
3720 1 28.826102592947493 22.507105224499895 20.56649462146354 0 0 0
2221 1 21.351628876224034 24.713338323451545 25.2791470550779 0 0 0
412 1 27.229480369301044 20.494385894491348 24.144674750938393 0 0 0
3669 1 24.346011430971778 23.75973482618218 21.3219170445281 0 0 0
3724 1 27.068913972530318 24.121993534194463 21.429275860584333 0 0 0
5418 1 20.963461532286434 22.124433294384637 22.932728204102748 0 0 0
2223 1 20.527043622204918 22.446480110670887 25.09706080950113 0 0 0
3671 3 22.42595430523016 22.997230913181074 21.90968531358009 0 0 0
3668 2 23.51645962953179 23.964084654091952 22.107906404324098 0 0 0
3667 1 23.78248683035181 26.10556020834184 21.92862161934544 0 0 0
3423 1 26.288381841004966 29.30603337835445 24.48925544077804 0 0 0
3427 1 26.268126346390982 27.66479446900797 22.595618730791788 0 0 0
4143 1 25.129955162499023 21.272984056507294 25.639578554823494 0 0 0
244 1 20.638603369896234 26.987117881184503 21.420982157709314 0 0 0
3424 1 27.46944885742112 28.055025538861837 24.616983507613284 0 0 0
3723 1 28.667229444033822 24.968905001675438 21.468416285298343 0 0 0
3421 1 25.877878435093205 27.898884672758204 25.53761532085864 0 0 0
5408 3 28.95854584059564 20.83120988653947 29.077122371720773 0 0 0
5403 1 30.381106152723735 22.744444507544713 29.105996354487953 0 0 0
4521 1 21.095663869030872 29.714591626954178 24.483426665294655 0 0 0
4524 1 21.019956891189057 28.11714736824893 26.45379254301729 0 0 0
4522 1 20.43198787439957 30.295427489024597 25.946264794552572 0 0 0
3665 2 22.98894773835523 25.334109971437073 21.85305930634294 0 0 0
3664 1 22.28176552317105 25.527961803683823 22.70050910119316 0 0 0
3666 1 22.444513668980314 25.47617521558214 20.907044480765613 0 0 0
3722 2 28.022987103844684 24.122031279483522 21.895095226457926 0 0 0
4144 1 25.019435140895208 22.52885287710365 24.348190118407782 0 0 0
2219 2 20.486169544487378 24.23763490624119 25.81132954973312 0 0 0
3422 2 26.41555766179892 28.221407470798898 24.5948217174158 0 0 0
5405 2 28.44734682130802 21.988085688170564 29.594856543122972 0 0 0
5256 1 20.970049599373343 21.621192361965974 27.39595755512157 0 0 0
5404 1 29.14021565828564 23.9592742581691 29.610854869612197 0 0 0
2222 3 20.70383911997398 22.872419292124178 25.964474950140165 0 0 0
5402 2 29.300340129912634 23.066010143668898 29.04563534436585 0 0 0
2215 1 21.264984548241355 24.57538328162566 27.767762471971757 0 0 0
3426 1 24.662301801055055 27.77206476433703 23.349082897853517 0 0 0
3425 2 25.73614687722884 27.41079755006024 23.507568403121397 0 0 0
4141 1 23.809638507487783 22.49288995793249 25.657109387096526 0 0 0
4146 1 25.88901926330212 22.905316431730657 27.25377310883772 0 0 0
3428 3 25.904712671575805 26.000754171994014 23.702932995932123 0 0 0
3429 1 25.52469684910561 25.661400710879075 24.54000768480975 0 0 0
4142 2 24.873892359800724 22.297709179530298 25.449185226246616 0 0 0
4145 2 25.816759210653647 23.211072897266646 26.193454264114276 0 0 0
4398 1 24.912518749343533 25.797749795452603 29.66049239852922 0 0 0
4147 1 26.7938960463496 23.074485796808816 25.71833212638426 0 0 0
4394 2 26.55807574959575 26.959765461090267 30.350986832557084 0 0 0
4148 3 25.410166135264447 24.522424985837905 26.04707094316883 0 0 0
4396 1 27.251166402531616 27.612592474567144 29.872787556115995 0 0 0
5151 1 29.23529030088534 28.52971089880598 27.129457572916152 0 0 0
4399 1 25.3373189632737 27.144978509568237 28.57133196611935 0 0 0
4397 2 25.802890029306212 26.357097227446886 29.211025969054734 0 0 0
4400 3 26.485673621806544 25.42589956863636 28.399351830199777 0 0 0
4149 1 25.808315795211406 25.04863350668616 26.733760339111647 0 0 0
4401 1 27.36578214319876 25.788040110923948 28.051581526771503 0 0 0
5156 3 29.180514191296865 25.90572857870476 27.58884995769061 0 0 0
5157 1 29.28647596489429 25.22540066112476 26.863126624606704 0 0 0
5153 2 30.4250477865544 26.67899357158356 27.444431025666013 0 0 0
5150 2 30.02966102913444 28.159310470009665 27.79694385413913 0 0 0
5149 1 29.813705564701902 28.251917492044495 28.864846908645003 0 0 0
3726 1 27.250093191765263 25.041698092399013 23.534586848508862 0 0 0
3725 3 28.009439752736263 24.42110636094001 23.272658650228518 0 0 0
3113 3 29.704258693244356 24.3617527495487 25.3635614173689 0 0 0
3114 1 28.991778958105236 24.213394968663806 24.66474106850212 0 0 0
6025 1 27.81013789905526 29.56694247838209 21.788749970952335 0 0 0
6023 2 27.21506680202077 30.469637315310546 21.61240112684663 0 0 0
6022 1 26.255566800507108 30.299400934528197 22.147074479175306 0 0 0
5392 1 22.972502726231458 29.535213604760408 22.776239762475516 0 0 0
5393 2 22.602204475777814 30.355624316645827 22.168554389754796 0 0 0
3719 2 28.682890587619987 22.799799109378444 21.67799754161987 0 0 0
3918 1 29.36137403940636 27.5575698330754 21.50922547851643 0 0 0
3916 1 29.462078984120886 27.0482943469806 23.197802768988442 0 0 0
4385 2 22.682578269926598 28.29409287598999 29.479409650565465 0 0 0
4387 1 22.94895267410393 27.43069041011625 28.89429122713424 0 0 0
4388 2 22.54438188867558 29.492726072064237 28.591731802929402 0 0 0
4384 1 21.804888705121396 28.042157953861267 30.11764864827932 0 0 0
4390 1 21.750375071385818 29.308424761575502 27.902152508245486 0 0 0
3721 1 28.096274879321587 22.036761209899392 22.117027915076065 0 0 0
3917 2 29.965617119202733 27.61412664250037 22.395902828670863 0 0 0
3919 1 29.98148203651656 28.672758469301808 22.706093902973688 0 0 0
5407 1 27.388844909206426 22.111388176369033 29.438053163703852 0 0 0
4389 1 23.441699039874507 29.58416591515842 27.926867246317105 0 0 0
5401 1 29.134449662687384 23.200634949050887 27.97492609097255 0 0 0
4386 1 23.40789458473728 28.379438148128177 30.265121080844626 0 0 0
3382 1 29.345442230896808 29.699187640919956 30.474114404377687 0 0 0
303 1 40.33970950021905 20.59127960128896 20.665808950917537 -1 0 0
298 1 39.6706994121282 22.848305602072887 21.38756671388148 -1 0 0
2365 1 38.59357285490031 29.892912966771792 20.717065934864273 0 0 0
5469 1 35.02237945017456 25.518863632559384 21.454629075237044 0 0 0
2104 1 33.40748011762087 20.502793716936907 30.33511108769072 0 0 0
5949 1 34.93737431434791 20.732713687415387 24.420116631408206 -1 0 0
5152 1 30.91983522598936 28.739104477844013 27.68955378277421 0 0 0
5154 1 30.7180649376734 26.683815936657968 26.395348728870175 0 0 0
2362 1 40.17583379935651 28.29009051272269 21.268840353965782 -1 0 0
3922 1 31.293895025116846 25.953259302249403 21.995793607588116 0 0 0
5466 1 37.71482395118352 27.00718410451714 20.876428539262154 0 0 0
2682 1 34.02753858417013 29.94376383201975 20.539876554157292 0 0 0
2106 1 30.779365157872782 20.454976824182072 29.430270830549752 0 0 0
2102 2 32.48764179793755 21.02364420947286 30.275073020829428 0 0 0
5155 1 31.272377208906526 26.253380442885266 28.03087777559468 0 0 0
3108 1 31.92278392522714 24.44425523380656 26.64853267917093 0 0 0
3110 2 30.8432143945894 23.46553514790185 25.118318151300656 0 0 0
3112 1 30.656930005859444 22.50022238192219 25.64495714894126 0 0 0
1420 1 35.934056498305125 21.214990817125468 27.65454827000849 -1 0 0
1195 1 40.03802542110872 21.247799542013695 24.988839204048716 -1 0 0
3111 1 30.78878420516789 23.17755205422089 24.093234902667515 0 0 0
301 1 39.51579099015927 21.478359666231835 22.65191328510792 -1 0 0
299 2 40.19784916098889 22.130570643350623 22.030990099209703 -1 0 0
1192 1 40.71063224647447 21.48990400679543 27.73614365047784 -1 0 0
1193 2 40.4239685880886 20.45401452988634 25.67001147822259 -1 0 0
3777 1 40.01729561095181 26.308324629654752 27.624017960733042 -1 0 0
3107 2 32.21195090202652 23.985919084917494 25.654194390455064 0 0 0
3109 1 32.54802813540588 24.79163297478205 25.08961736102237 0 0 0
3924 1 32.87570910020097 27.3627950083241 20.940331136228536 0 0 0
3923 3 31.970757867814882 27.55044811013184 20.941199790607513 0 0 0
5944 1 35.14461878506885 23.0273071121648 21.630253935536068 -1 0 0
6014 2 39.29333428669944 28.645266656416275 24.890021671539678 -1 0 0
6016 1 38.734869835361025 27.71588425218615 24.777946415038745 -1 0 0
6017 2 40.73051930261716 28.439465597511358 24.40634751525789 -1 0 0
3778 1 39.373769186450076 24.968664037045116 28.486432978155992 -1 0 0
3776 2 40.213195964031065 25.31013116000306 27.920954204300795 -1 0 0
5470 1 35.67249726527294 26.897821338360618 22.276219949864405 0 0 0
5941 1 33.45370645420752 22.579406452264728 21.24321173532585 -1 0 0
5468 2 35.67174130361997 26.42810298283734 21.28035664312082 0 0 0
6018 1 40.75843717690027 27.94447674380558 23.41886822785169 -1 0 0
5465 2 37.05955114208538 26.09385734258561 20.830930219001626 0 0 0
5943 1 34.72690610921217 21.38829160026461 21.006842867597733 -1 0 0
3106 1 32.801522433917825 23.065356305300448 25.79289653852995 0 0 0
1415 2 37.62538212237492 20.75877280939929 28.995803677899016 -1 0 0
1414 1 38.76918693546109 20.801106578218548 28.95887507457523 -1 0 0
5947 1 33.48822929471181 20.649737196320896 22.964772439487362 -1 0 0
5948 3 35.21071587456815 21.441110494450164 23.812013941330708 -1 0 0
1418 2 37.053607931883306 21.21684047353323 27.695971895343376 -1 0 0
5942 2 34.361318853460695 22.18771349498386 21.657738481193544 -1 0 0
3774 1 39.548681101726274 24.327281960652755 26.059665831141636 -1 0 0
5464 1 37.48381502094663 25.31685992315752 21.38423908514544 0 0 0
3921 1 31.995198344728603 27.152129681826054 23.001414607414326 0 0 0
5644 1 35.41823371837939 26.198603067688474 24.400585105286357 0 0 0
3920 2 31.340088482067927 27.014091937475353 22.122082160480534 0 0 0
5650 1 37.5611784579324 25.29016779012595 25.729993969558315 0 0 0
5649 1 37.61100382709946 25.285402553946867 23.95228961331737 0 0 0
5645 2 35.59803379994809 25.19335888648006 24.689857145840655 0 0 0
5648 2 37.07188897567231 24.896534286263442 24.8149116901692 0 0 0
5946 1 33.433483367407355 22.398286736703657 23.547527661537607 -1 0 0
5647 1 35.17402886118577 24.573701603074745 23.82995613200066 0 0 0
5646 1 35.174027162596346 24.926489397461886 25.671753681001967 0 0 0
5652 1 36.579717463131324 22.891952791331377 24.450144097101486 0 0 0
5651 3 37.28157560396262 23.45371171653813 24.951814155632903 0 0 0
5945 2 34.032474317611616 21.639483344580427 23.01992728298997 -1 0 0
1422 1 37.38601139779165 22.964767177782697 26.657929628995475 -1 0 0
1421 3 37.54851517680356 22.582970551800504 27.525419788875674 -1 0 0
26 3 35.94465664980691 29.932263382495098 27.392343556589612 0 0 0
24 1 36.14883857476093 27.788870434894527 27.085070283905083 0 0 0
23 2 35.628062518902205 28.70972891265051 26.62540577815297 0 0 0
19 1 33.56537727681266 29.160509573155856 26.3339970614379 0 0 0
20 2 34.140709896792536 28.44991559816043 26.826145294283233 0 0 0
22 1 33.79682073670695 27.473750950801 26.509576046286995 0 0 0
21 1 33.92902511520213 28.44900903117669 27.916242061512964 0 0 0
25 1 35.94085813883442 28.751632625984655 25.560235635423076 0 0 0
1419 1 37.42369962907754 20.638316154522446 26.8069072744859 -1 0 0
3773 2 40.47213085338968 24.460817167864356 26.66708815679584 -1 0 0
27 1 36.740159199724296 29.794391152769435 27.90278028804628 0 0 0
4869 1 32.4152238129234 29.10653641411102 21.778820864205297 0 0 0
6173 3 37.83212201529074 30.26954532345975 29.5609372317286 0 0 0
1417 1 37.30109863166062 21.376908340568797 29.85781474299292 -1 0 0
1431 1 37.14393682864404 23.77864423913708 28.80314000208996 0 0 0
6013 1 38.81257523473864 29.440151362886258 24.351075912178853 -1 0 0
2103 1 32.52260186037694 21.959045127217053 29.75421637978298 0 0 0
1430 3 37.09209052744293 24.206322555754014 29.6451681164375 0 0 0
1428 1 36.144485749449565 26.020452685161054 29.223706814090804 0 0 0
4868 3 32.696947467570276 30.07875139243666 21.791117319441803 0 0 0
1426 1 34.94341611571854 24.034931334821852 28.11799111338443 0 0 0
1424 2 34.77365591717537 24.347965332404918 29.167001871427228 0 0 0
1602 1 40.47353318208753 25.591570945927465 30.467723788821402 -1 0 0
1427 2 35.92650379583051 25.047774850899312 29.727503264280788 0 0 0
1423 1 33.8839161783223 24.950801021548607 29.154654772557812 0 0 0
3186 1 33.10766281058009 30.456597914998746 30.154399516901158 0 0 0
6015 1 39.35725262660126 28.95613633195173 25.88091972974412 -1 0 0
4866 1 32.3978675314087 29.76201518061699 23.90259435350621 0 0 0
4865 2 32.87482630282732 30.441493455355474 23.202956363406965 0 0 0
4861 1 35.01579140568453 29.92769896318563 23.51705309742152 0 0 0
1425 1 34.65845757282562 23.42450829043872 29.840978396950504 0 0 0
6169 1 40.03813202022017 29.520879851610562 30.590058276220233 0 0 0
3802 1 1.1332553736993114 38.96480039088116 20.59702182851209 1 0 0
2367 1 0.43907611319390155 30.979937149283586 20.59994425296326 1 0 0
4562 3 2.254445069109644 31.260474771622707 20.44728223618132 1 0 0
4563 1 2.6303478827059283 31.8976287210417 21.058149877558648 1 0 0
3800 2 0.08048501106858826 39.12210028707729 20.503958210253387 1 0 0
5462 3 3.2898498958925133 40.4292011002063 20.402640788868293 1 0 0
333 1 6.0378345259116255 40.522234380497636 29.714015825390828 1 0 0
5460 1 4.872678451003452 40.3403166699929 21.67181602599315 1 0 0
2135 2 5.979405781932412 31.18555078508857 23.809311677837357 0 0 0
2137 1 5.686229803620668 32.23297309840898 23.88465080736678 0 0 0
2134 1 6.231829468992472 30.754714652018418 24.809818822599897 0 0 0
5326 1 2.226687296991142 30.99403403032923 23.316021010850697 1 0 0
295 1 1.6764514369569998 36.09758147698047 22.07724023757713 1 0 0
294 1 0.03971602103928495 36.690741385089034 22.014831063076578 1 0 0
3308 2 8.341714173604142 40.36987053969933 24.293930119125072 0 0 0
3310 1 8.074076440393041 39.693208406014485 25.07232579377034 0 0 0
3312 1 9.487747025110853 40.244053016176004 22.805461943038438 0 0 0
1139 2 9.705329223182682 30.972442332087184 26.550889171434598 0 0 0
4053 1 1.5433954686699183 39.41575235177322 25.994851336417636 0 0 0
4058 3 0.6368748442635281 40.63561283408894 27.92535847904853 0 0 0
3311 3 9.258564562425734 39.55448733126327 23.43576527416793 0 0 0
5455 1 2.8905363062436984 38.86755740368156 22.575207311152028 1 0 0
5459 2 4.246524314530922 39.64661686764388 21.08560991253035 1 0 0
5457 1 4.32210909336842 37.917352117762356 22.185805415399187 1 0 0
5458 1 3.024645119038179 38.02594031543244 20.967659219985315 1 0 0
5456 2 3.576578665979032 38.554374321658315 21.813325728376874 1 0 0
2138 2 7.148194426975977 31.07677017821401 22.825689669559065 0 0 0
2140 1 6.8924912491856265 31.40095315175484 21.82079613033934 0 0 0
2141 3 8.261529498237193 32.01821016466734 23.171490450221267 0 0 0
2142 1 8.521585137955666 31.682704933661647 24.014975867606463 0 0 0
1137 1 7.6153256463528525 30.636066299619962 26.796222882663933 0 0 0
4052 2 2.1322200731681757 40.394208643806394 26.0834827424232 0 0 0
4051 1 2.363536217088079 40.76197776418788 25.046448873290057 0 0 0
4059 1 1.3113027956236694 40.20006303985465 28.438972037626044 0 -1 0
1142 3 9.765959677492033 30.882394491134182 25.10995114082263 0 0 0
4054 1 3.091650798437293 40.04161573337657 26.507440919785008 0 0 0
5322 1 1.3268708292417217 31.278739527997637 25.316770072074736 1 0 0
5325 1 3.3685158527328536 32.052864862261295 24.077574498686243 1 0 0
5320 1 1.397482935203903 33.0914118500853 25.37638776516117 1 0 0
3307 1 6.708091814788472 39.987058078954554 22.92218754540487 0 0 0
5323 1 0.21273498745926547 32.366739872411586 24.326117958976443 1 0 0
3462 1 5.550351902433767 39.285120004106105 27.076309920863725 1 -1 0
2542 1 6.742141238876966 37.787120963388794 23.655891441568368 1 0 0
2545 1 4.50812678704863 36.78253560383445 23.867090923924426 1 0 0
3457 1 7.711132197273471 38.273781092566495 26.815181883440076 0 -1 0
2539 1 6.260625214747059 37.272362662690604 22.015879268162458 1 0 0
2541 1 7.308193707346844 36.23500201223212 23.045271938638706 1 0 0
2540 2 6.456672185619017 36.93470702947311 23.048820314249806 1 0 0
3458 2 6.851805353367008 37.66488548293255 27.17763740881686 0 -1 0
3460 1 7.367768219844151 36.93219849427322 27.83197427154317 0 -1 0
6258 1 6.78329055524841 33.0590851702714 26.191901681186646 0 0 0
6259 1 5.651619998513327 31.882712946348672 26.858212471708363 0 0 0
6257 2 6.156069691441998 32.81445387584511 27.110535921947626 0 0 0
6256 1 6.908008266202139 32.758040586779295 27.900785394670326 0 0 0
6262 1 4.409113053601438 34.06370227365879 26.520832146737863 1 0 0
6261 1 5.545836730435749 34.82794883136464 27.613308867796604 0 0 0
6260 2 5.073101657236578 33.892003475482014 27.33413721497984 0 0 0
6263 3 4.138606533206558 33.49344323910464 28.371191392385 1 0 0
3461 2 5.714167597169462 38.51255493249768 27.756985071985028 0 -1 0
5324 2 2.350019665687241 32.06832691773341 23.668744251403297 1 0 0
5327 3 2.3175563383208893 33.06020516483967 22.649327289955078 1 0 0
5321 2 1.2208491498420844 32.228812228783056 24.727924467699573 1 0 0
3051 1 2.4351779361185577 33.67785625266062 28.033694956776557 1 -1 0
3050 3 1.4876419849174198 33.736459436205735 27.807008364934276 1 -1 0
5328 1 1.4916366735479065 33.62298521816174 22.57381576010988 1 0 0
2915 3 0.39949114227245197 36.293424607801924 28.341571891135757 1 0 0
2916 1 0.7792043037100035 35.42353578315816 28.14401282977451 0 0 0
1332 1 1.2998341273982374 37.395439212085094 29.36867783125332 0 -1 0
1328 2 3.2014394013993415 37.37284870488074 29.623428770924715 0 -1 0
1331 3 1.997413535183168 38.059114615757515 29.60335297530998 0 -1 0
3047 2 0.7624595871257465 32.478373381155045 27.959730781712036 1 -1 0
3049 1 0.07044910861052837 32.39814018797913 27.12753861408742 1 0 0
2547 1 4.3704282336789335 34.54980834388698 22.87380403060839 1 0 0
6264 1 4.495982368114791 33.5097700396425 29.288541907984886 1 0 0
2543 2 5.315362916897886 36.10206219373481 23.60398853817198 1 0 0
2546 3 4.9878498299583125 35.221352682776356 22.545392017196658 1 0 0
2544 1 5.662320217153249 35.53410687162084 24.522864774351206 1 0 0
3464 3 5.970341127469974 39.110464738488396 29.037960440099347 1 -1 0
3463 1 4.874259779533404 37.84124586587622 27.81744851505231 0 -1 0
3048 1 1.4770723601221958 31.645946237179928 27.948273666275483 1 -1 0
3044 2 0.034716594304888604 32.52949295512106 29.264113153280263 1 -1 0
5148 1 9.801729277740735 38.001843046451974 23.085575868901444 0 0 0
1329 1 3.932200290965013 38.24995022028124 29.55045839318813 0 -1 0
3459 1 6.5254823153652755 37.063009716313 26.300333022834927 0 -1 0
3465 1 6.3774228072639225 38.37704632153046 29.579374821552488 1 -1 0
3045 1 0.7635997428106048 32.42240150613631 30.05020532314427 1 0 0
1330 1 3.3421298211810213 36.833219975823056 28.63984309133196 0 -1 0
618 1 8.225882963519622 39.246008208224566 30.59211721457469 1 0 0
296 3 0.3013952154613451 34.7180736164157 22.446185557251745 1 0 0
293 2 0.736139193434742 36.12323899690764 22.597647145324263 1 0 0
5142 1 9.363913881442343 34.59884506125079 23.415648563011004 0 0 0
1140 1 9.580776037305872 32.06764749437049 26.89454715240692 0 0 0
1556 3 9.928046547563183 36.25885117532555 20.4141150429117 0 0 0
5145 1 9.33704919123253 36.65948442646907 24.6525196851489 0 0 0
1557 1 9.867069810384962 36.667521195573386 21.299039985470273 0 0 0
292 1 1.2100504428708205 36.106323834804144 24.778590242683485 1 0 0
290 2 0.7409867205226157 36.746804509029694 24.013060160762087 1 0 0
291 1 1.2695112367012469 37.711050275245825 23.983233823298487 1 0 0
738 1 1.078107893082968 39.17759063003051 30.529889489741834 0 -1 0
2643 1 6.261433830368089 31.4920241607454 29.824763621046696 0 0 -1
5371 1 11.969579233061127 40.22008324897311 21.97000542449095 0 0 0
2806 1 20.188635344816202 39.40059852563923 25.74034064561637 0 0 0
870 1 16.909348219134017 31.219300276220142 26.195481373787903 0 -1 0
5147 3 10.364931712783623 37.274805630951064 22.8923788772419 0 0 0
5140 1 11.06229301304311 34.7056037995854 23.17462450870709 0 0 0
5141 2 10.280513463037979 34.97649934314502 23.90559961867109 0 0 0
1555 1 11.9041826703724 36.78412994654241 20.678419108584457 0 0 0
2804 2 19.40160561099768 40.09821898401556 25.725079887210473 0 0 0
4305 1 14.434818415632451 40.189042007619975 22.073452289620946 0 -1 0
867 1 17.36060035868901 30.640060472318105 28.573660403398492 0 -1 0
1848 1 11.974863311713628 30.969172990238903 28.97191795556215 0 -1 0
5146 1 11.00898475844096 36.91617642962226 24.772593170254133 0 0 0
5144 2 10.250729265162498 36.486705066379685 24.137287155175322 0 0 0
1143 1 10.557110016671405 31.287435603902082 24.84472072943424 0 0 0
1554 1 11.548606467097056 35.0347066959036 20.706216271441658 0 0 0
2805 1 19.315446005456945 40.38537106592313 24.683056774598732 0 0 0
4306 1 16.036530057813817 39.898803761996135 21.384651642530724 0 -1 0
2807 3 18.148316462546518 39.51309359312512 26.268245775771817 0 0 0
2384 3 10.711222063234116 31.974783503871937 20.909131970570378 0 0 0
866 2 16.477980325089987 31.14286007028148 28.23924614435577 0 -1 0
865 1 16.187750301007725 31.71926830239657 29.12070833690621 0 -1 0
869 2 16.726491299982726 31.930023667575632 26.992771699949806 0 -1 0
5143 1 10.530826171327728 34.461518603136696 24.84797462209595 0 0 0
1615 1 12.313569455474084 33.10864557184311 25.73362453914039 0 0 0
1614 1 13.295511475661032 31.69104371835989 25.600356551861577 0 0 0
1613 2 13.060858093725221 32.622071257044695 25.134084191572903 0 0 0
6238 1 10.80388841709595 35.38803461650317 27.37141964959517 0 -1 0
6241 1 12.403272797681941 36.11267543023995 27.033378440113555 0 -1 0
4310 3 16.781797835571563 40.1469377631237 23.734576385541782 0 -1 0
4304 2 15.425022344559661 40.68505666551555 21.813401636845168 0 -1 0
871 1 15.89000881462384 32.49313308474962 26.683644816709403 0 -1 0
2771 3 16.794699183903163 33.515739911393055 20.42294779634113 0 0 0
2769 1 15.622572958821426 33.72296438096494 22.027920694863095 0 0 0
1620 1 11.311860335444175 31.895747110020356 22.64385533722001 0 0 0
1612 1 13.89782203490721 33.271360675589534 25.261234834863448 0 0 0
1619 3 11.691302711155437 31.621895984246688 23.509708418335073 0 0 0
1618 1 13.586999249814621 32.021527166483864 23.013487870363925 0 0 0
6240 1 12.23876268561345 34.85565838185267 28.199748362236694 0 -1 0
2766 1 13.524275527825894 34.17982983527655 20.962890945046475 0 0 0
6243 1 10.81057482104022 37.48531176828001 28.805097175529635 0 -1 0
1617 1 12.586562319764953 33.38233109812271 23.104940730774285 0 0 0
1616 2 12.764377760307312 32.46392665770611 23.637309528357466 0 0 0
2770 1 15.154017134103299 32.28843009129959 21.05106260305603 0 0 0
2768 2 15.455633773813476 33.393814085958255 21.011870004920215 0 0 0
6242 2 11.58403970516121 36.734048765507204 28.930478260338244 0 -1 0
6244 1 11.495143183675475 36.131586016682824 29.841404314332145 0 -1 0
6246 1 13.09950375106736 37.19030338714597 30.060062430921136 0 -1 0
6245 3 12.920174279764527 37.45358208726482 29.131366589925488 0 -1 0
4729 1 13.403771441344988 39.665941035803435 25.305384019073216 0 -1 -1
4732 1 11.188243770961897 39.45403602924194 27.28225420984786 0 -1 -1
4730 2 12.112901294655622 39.78800514927092 26.88155793308903 0 -1 -1
4734 1 13.143605921344648 39.08897542004 28.483151149878385 0 -1 -1
4733 3 13.087371854176522 39.901127832126576 27.97728928021558 0 -1 -1
4727 2 12.603573917182068 39.10742873732024 25.64718745630093 0 -1 -1
4726 1 11.822864299908803 39.128145103045476 24.887687099890858 0 -1 -1
4728 1 13.038292853996753 38.126480520111286 25.768985174130925 0 -1 -1
4311 1 16.81703060321337 40.22897594599861 24.687058761985394 0 -1 0
5548 1 17.233134075636887 37.31755136040073 28.260422361061703 0 0 0
5547 1 17.12591400436651 37.416372313301956 30.015816072560224 0 0 0
5546 2 17.189500319198388 36.713990048203186 29.182676077960625 0 0 0
6239 2 11.739189421711554 35.70592725059636 27.795947482869966 0 -1 0
2808 1 18.067053794371844 38.73007413319088 25.72387501509281 0 0 0
692 3 17.620048526302966 37.68250105771577 24.12608684117416 0 -1 0
5545 1 18.08553787474246 36.217080233374496 29.222487675762075 0 0 0
693 1 17.60446792725949 38.43326708209013 23.52663688001257 0 -1 0
5550 1 15.165390992323928 36.64700515354213 28.89760552312344 0 0 0
5549 2 15.90029693871406 35.90713372943471 29.099673387717676 0 0 0
5551 1 16.062894604871218 35.2486079604593 28.284586133158424 0 0 0
691 1 15.793028611979468 37.889245215083896 25.079094159764153 0 -1 0
5552 3 15.491402145142283 35.22508065366032 30.29239722677828 0 0 0
690 1 15.676443443413419 37.11851179073326 23.48742560610245 0 -1 0
689 2 16.327536758043337 37.22713717181875 24.381108933494584 0 -1 0
872 3 17.86360263439891 32.674876475114324 27.1421682264459 0 -1 0
2503 1 17.730607198666394 31.513341906552313 23.90418238043592 0 -1 0
1409 2 18.629288167410404 35.7699053063511 21.08106624069298 0 0 0
2506 1 17.259178187357286 33.248517725752734 23.882523111920364 0 -1 0
207 1 18.76689450709962 33.73306757494901 28.50462447558791 0 -1 0
206 3 19.210586087538005 33.917918874156584 29.38567057491007 0 -1 0
1408 1 19.01236210194515 37.912282690276655 21.018721495768222 0 0 0
1411 1 18.138144653235734 35.85484459024691 22.050481290098514 0 0 0
873 1 18.358111747064267 32.82363864295811 26.317452444134798 0 -1 0
687 1 16.782939688054665 36.03226964631795 26.048617378496868 0 0 0
685 1 15.547853196187837 35.45319903080084 25.088532156724142 0 -1 0
686 2 16.469307587569883 35.89686966035178 24.992199590269653 0 -1 0
688 1 17.2087657537128 35.28097719352332 24.364931390341326 0 0 0
1852 1 14.07076395137346 31.458277431868133 29.91124285542753 0 -1 0
1850 2 13.158464643193975 32.043245572911815 30.251457878039112 0 -1 0
4473 1 19.797938734132515 32.22822500668942 29.94024280065919 0 0 0
2505 1 17.642065029240033 32.450838824204475 22.475501109318724 0 -1 0
2504 2 17.92593979766433 32.49318542843659 23.52703358652557 0 -1 0
205 1 20.099076714572444 35.80603088460205 28.892824135888514 0 -1 0
2507 2 19.405175907851486 32.894342010838876 23.661963357960992 0 -1 0
2509 1 19.627642877526743 33.86172236525942 23.286705667100914 0 -1 0
1846 1 11.229445957003051 32.550906931116835 29.103768702013458 0 -1 0
1847 2 12.21251465772732 32.07309833500029 29.059148858681155 0 -1 0
1849 1 12.784684330694276 32.303679700483805 28.15124998852554 0 -1 0
1410 1 19.07374406623225 34.820825941109426 20.892534782343315 0 0 0
2508 1 20.016123775048527 32.19496925293181 23.072786445578462 0 -1 0
1406 2 19.61322589698229 36.96326098063133 21.026165798248865 0 0 0
1407 1 20.310730415263414 36.92230195737777 21.9118520201682 0 0 0
2510 3 19.74879763814916 32.89689844825995 25.069322751002566 0 -1 0
4472 3 20.31294744411122 31.551912783949874 30.47326619064046 0 0 0
1854 1 14.24400390837907 33.760264533002626 30.332352024754098 0 -1 0
85 1 19.937716913135866 38.18506904619077 30.567042398856223 0 0 0
2673 1 27.872381973551594 40.14864989794707 20.405126311377323 0 0 0
2793 1 30.38824898560318 35.07428228419514 21.235396758059707 0 0 0
3950 3 29.045003875065124 40.55216922948895 26.547017407229628 0 0 0
3943 1 27.795587591608655 38.88004741654642 24.907083068066736 0 0 0
4597 1 22.916333279323496 40.73173235226905 29.33470915307185 0 -1 0
4592 2 23.54634985244587 40.63708513655716 27.194777659577163 0 -1 0
6024 1 27.77758108437855 31.297999363831174 22.058732654977465 0 0 0
5395 1 23.405809398213407 31.165920950045585 22.18134425590157 0 0 0
4391 3 22.54092941747624 30.722782005774178 29.325922131765136 0 0 0
4392 1 21.75207581445302 30.78345704238469 29.863759073855118 0 0 0
2733 1 24.113556713711855 34.74128317166114 21.214291858368725 0 0 0
3951 1 29.51699014782612 40.71134560544014 27.41392284247258 0 0 0
3945 1 26.782129814844446 40.338360194942744 24.909746294520808 0 0 0
5394 1 21.662078094522855 30.615385899995722 22.610912983568156 0 0 0
204 1 20.833097079913063 34.8613670054803 30.26349239775835 0 -1 0
3949 1 28.2313547361227 38.87289892533975 27.284882483347523 0 0 0
3947 2 27.82816031322217 39.79366417820604 26.79004487404246 0 0 0
4594 1 22.797306520790084 39.88330999079826 26.951494223814365 0 -1 0
5518 1 24.183079329473994 31.100893151862795 24.73696926380427 0 -1 0
2982 1 27.67526288117108 33.33296113205862 26.940438476577985 0 0 0
5520 1 25.172444912065064 31.09449658598543 26.114183538283353 0 -1 0
5519 2 24.50131267339795 31.74948087003542 25.55308529804494 0 -1 0
3948 1 27.15867237550119 40.228612047997245 27.60410999204414 0 0 0
4591 1 24.517221384436493 40.17452762069635 27.299960567094224 0 -1 0
2985 1 26.745025794253134 31.665808292943364 28.490353772293215 0 0 0
3944 2 27.030839447340394 39.45840759445129 25.53586930595283 0 0 0
3808 1 23.993660910759868 39.96216148069852 21.434385666129266 0 0 0
3811 1 25.758408715762492 40.06761287996095 21.75915656535349 0 -1 0
3809 2 24.996381524461967 39.453216624953534 21.31874843955871 0 -1 0
2980 1 28.092516393404146 34.36532365394266 28.276109184613176 0 0 0
2511 1 20.705777498922384 32.98393318884335 25.213413509116382 0 -1 0
202 1 21.026355286451203 33.87136173619728 27.31119904538918 0 -1 0
5524 1 23.416217566788763 32.85034190267805 27.13281128595625 0 -1 0
5522 2 23.28459324384824 32.150876584868875 26.26181053243796 0 -1 0
5525 3 22.418302516423353 32.89576637708177 25.35945489091322 0 -1 0
5523 1 22.763116601730765 31.292884852165603 26.62000895909588 0 -1 0
3946 1 26.212179209911856 38.83758133226136 25.789689806227926 0 0 0
448 1 28.253606184014163 33.80022492167074 21.841689864484138 0 0 0
3816 1 26.837045658062916 38.07691679727423 20.886090621425385 0 0 0
449 3 26.581095621345302 34.87799450586797 22.013793396597627 0 0 0
447 1 28.41000416773644 35.323225111537624 22.902653497023927 0 0 0
446 2 27.798612099536644 34.44833051101175 22.63808864781642 0 0 0
450 1 26.506867135521258 35.81617542128006 21.682908819471127 0 0 0
3813 1 25.5788314916799 38.31925895167678 23.05902718702027 0 0 0
3815 3 26.219071377281136 37.40535736656991 21.281324594102312 0 -1 0
3812 2 25.244409134661385 38.15872228382317 22.00784438956847 0 0 0
3814 1 24.399263275906584 37.55524672304926 22.11254937062008 0 0 0
5521 1 25.044453800466368 32.58416190679246 25.18566502358094 0 -1 0
6007 1 21.212835295542213 37.82324376227122 24.35820793019856 0 -1 0
6004 1 21.115307965511622 36.09762427314564 24.001890755133072 0 -1 0
6006 1 22.419681492696064 37.16648313581031 23.223667901680557 0 -1 0
442 1 26.940298598514687 32.83313165546453 23.707734440272098 0 0 0
444 1 27.12994941675483 34.12508442834909 24.77949714533312 0 0 0
443 2 27.630909890286414 33.661653621477676 23.911471786124327 0 0 0
6009 1 23.14270428825402 37.46610124245246 25.678069476959806 0 -1 0
6005 2 21.79861619902455 36.961351550690885 24.134677890446515 0 -1 0
6008 2 22.56460467572473 36.61550952713057 25.368443010685056 0 -1 0
6010 1 21.831350623971797 36.35574025560449 26.134485367309217 0 -1 0
6011 3 23.425796043189944 35.49978400067615 25.04371055401767 0 -1 0
6012 1 23.93454643514065 35.30025588353601 25.814821050752414 0 -1 0
5526 1 22.85979865922637 33.69550562989781 25.061576689031337 0 -1 0
3878 3 25.13184469829022 34.96651965496556 26.978222112334034 0 0 0
3879 1 25.394561672262174 34.304206222800126 27.719137295628574 0 0 0
3875 2 25.718295381573835 36.20220367420633 27.467355596495814 0 0 0
3877 1 26.679612958684206 35.832758387548346 27.906714522922893 0 0 0
3876 1 25.962744908636385 36.81353054707942 26.555583845219214 0 0 0
2987 3 25.721427748345597 33.36564652228201 29.03029358347905 0 0 0
2983 1 28.873686278802925 32.76430895826388 28.15120357365394 0 0 0
2981 2 27.9423455478502 33.328734322257596 28.02843799305449 0 0 0
2986 1 27.295021139683097 32.54785127800403 30.015432213162704 0 0 0
2984 2 26.94314840158437 32.62454025755367 28.92637823516326 0 0 0
2988 1 25.214037509845074 32.90283792851998 29.767913455853016 0 0 0
203 2 20.42507837057107 34.82474372056682 29.234712072906948 0 -1 0
445 1 28.548118395730956 33.176943446905405 24.260114548652393 0 0 0
1897 1 30.185356497925362 35.82134501689318 28.89907526274185 0 0 0
4419 1 23.785046067573766 31.484576417480458 30.199036668970844 0 0 0
200 2 21.408156985088514 34.2126994487147 28.28618458960789 0 -1 0
199 1 21.84371698444718 33.37249146699413 28.803364430140615 0 -1 0
201 1 22.221912002116508 34.90831959132204 28.09195312878958 0 -1 0
3872 2 24.955824502400905 36.89026429979934 28.522412879990092 0 0 0
3871 1 24.808954215001798 36.33307687124469 29.40430872432251 0 0 0
1895 2 30.057295892946797 36.761761893562806 29.43553274885438 0 0 0
1898 3 29.880860672812716 37.74873997801533 28.366736613607575 0 0 0
3874 1 25.527783136099092 37.77606529779845 28.835491497582122 0 0 0
3873 1 23.941896164909867 37.1892168170064 28.344300011507485 0 0 0
5968 1 29.979805667263275 36.322586257167245 24.681889631542955 0 -1 0
5971 1 30.253074753733312 36.462401075151796 26.356201811378924 0 -1 0
3501 1 30.51680959749442 39.760370370581334 29.052492495316244 0 0 0
1868 2 27.072262847220298 40.68730948613559 30.16494148515472 0 -1 0
1870 1 26.69074613482666 39.71075601683133 29.76429114853072 0 -1 0
1892 2 28.782440271510612 36.80821272294779 30.289576324900825 0 0 0
1894 1 27.866807137549024 36.533795893733945 29.69864227508768 0 0 0
2680 1 35.636768088106045 31.61022909578179 20.77371164167675 0 0 0
3801 1 40.516285846169374 39.15834486853948 21.5241067369193 0 0 0
2366 3 40.26500950564072 31.027842644611145 20.9075584008955 0 0 0
2796 1 32.85438427522839 33.456257570005846 21.157757920361284 0 0 0
2798 3 30.96309889471437 32.54537075152025 20.741397442218165 0 0 0
2795 2 31.802346120207005 33.581222843035086 21.296110433150595 0 0 0
2791 1 31.951101075841102 35.62564422218945 20.79722111940467 0 0 0
2792 2 31.26904897822297 34.826313188835776 20.683594825360323 0 0 0
2797 1 31.64804056589935 33.64660123558501 22.43607259037174 -1 0 0
3262 1 35.48868647379332 40.18174267305183 28.21241400501023 0 -1 0
6174 1 37.200563764487846 31.049405243496437 29.615054971509334 0 0 0
5670 1 34.45112378933229 31.799604013842618 28.849636958969885 0 0 0
1921 1 40.4923495912904 39.21705519732315 24.591952553621372 -1 -1 0
3046 1 40.02729440986569 31.750507875351612 29.266087642890945 0 -1 0
2912 2 40.107515310301025 36.62660392755497 27.490185697209487 0 0 0
2913 1 39.33081217265409 35.891135575032045 27.564098565423436 0 0 0
2914 1 40.382688440983294 36.75027419031057 26.432127843985683 0 0 0
1920 1 38.869010028862036 39.64286860014389 25.35475973368093 -1 -1 0
297 1 40.348591273394796 34.45589499773196 21.877369466931583 0 0 0
3500 3 30.8606238851803 40.57091949234053 28.5913129315389 0 0 0
1896 1 30.95282530943826 36.885065710346325 30.007706855641125 0 0 0
2799 1 31.34179082519323 31.663989065176235 20.787088595175668 0 0 0
3132 1 39.33615631816094 32.42347747423061 21.482953764063414 0 0 0
3131 3 38.72568936708181 33.188147014725125 21.368542138833686 0 0 0
1361 2 31.390000847455262 40.25658085904326 23.405217997599163 0 -1 0
1363 1 31.838168227656965 40.77708814792986 24.253836859200817 0 -1 0
3260 2 35.87319461657417 40.40383137938043 27.177295488281782 0 -1 0
1360 1 30.981922733355923 39.3283494825652 23.750093970319277 0 -1 0
3261 1 36.319314182035114 39.45267834783925 26.95952065996623 0 -1 0
4867 1 32.25877823857003 31.406447312625556 23.356894964265376 0 0 0
3043 1 40.285304526619456 33.48548332621189 29.29033314434427 0 -1 0
5970 1 30.79972560072837 37.70577186527311 25.2764549785472 0 -1 0
2289 1 35.0500593209056 36.06811587633163 20.467605451403042 0 0 0
3130 1 37.475071745510604 34.03413417040566 22.661578330766503 0 0 0
1919 2 39.45490825392803 39.61218776722964 24.409987263377836 -1 -1 0
1918 1 38.91432619872787 38.91465564674249 23.711668068886336 -1 -1 0
289 1 40.45600314763793 36.92529014676268 24.191898086908154 0 0 0
5969 2 30.714547320338287 36.65821667181871 25.399394612339748 0 -1 0
1364 2 32.535057515867315 40.041365168035085 22.498115926139473 0 -1 0
3129 1 36.692754560682545 33.13262065753856 21.480784864802292 0 0 0
3266 3 33.88193409801755 40.00847343341931 25.844117668708957 0 -1 0
3267 1 33.79976104088787 39.84403215747629 24.91775070559706 0 -1 0
1365 1 32.272582273822586 39.433529232027055 21.651836993148773 0 -1 0
3128 2 37.56091691483745 33.128243173238495 22.122807424271446 0 0 0
5669 3 33.54185600081738 31.5693766096628 28.93606574084158 0 0 0
3126 1 36.790188000184564 31.962403361020677 23.742923681867403 0 0 0
3125 2 37.66098882317204 32.0559862249562 23.09532312908704 0 0 0
5668 1 31.93520721071017 32.264402202467764 30.024115375218695 0 0 0
5666 2 32.72167841236829 32.6519411478095 29.419062738580408 0 0 0
5667 1 33.30401971242917 33.35928588709506 30.06277759800313 0 0 0
5973 1 31.897938981625362 34.86043361017525 25.341300905536684 0 -1 0
5974 1 32.24309354668951 35.926885683512 23.981366876001495 0 -1 0
5662 1 31.281587593808673 32.49324476337046 27.79067991948639 0 0 0
5665 1 31.320746498212113 34.02958954121592 28.58245946713726 0 0 0
5674 1 35.826221090352355 39.50480799560578 20.590936519165158 -1 0 0
3124 1 37.733129766774134 31.005953702572032 22.61496679359602 0 0 0
2911 1 40.01264330993039 38.834419666478425 27.75727815829305 0 0 0
2909 2 39.37745986259812 37.94278996350865 27.935234391705716 0 0 0
2908 1 39.178134290831196 37.87140974778109 29.036893457572905 0 0 0
5679 1 35.26089989076377 40.50512276730235 22.564817872974782 -1 0 0
3127 1 38.520946173081065 32.21921709431205 23.801358710055407 0 0 0
5972 2 31.993139216144233 35.870584746899084 25.064063627378225 0 -1 0
4863 1 34.323259051620425 31.106995120598206 24.55420611370572 0 0 0
4864 1 34.690276381065495 31.645764253085616 23.107056072388 0 0 0
4862 2 34.316401866468304 30.75391072278762 23.56057430773367 0 0 0
2557 1 37.66838029198721 37.232470828930154 24.188180479514244 0 -1 0
5663 2 31.979901502370456 33.23596845038795 28.195727225567556 0 0 0
1367 3 33.72485612803907 39.44052291398439 23.152240662779835 0 -1 0
2910 1 38.42426890006926 38.09631405569665 27.466627939566273 0 0 0
1368 1 33.85387562559849 38.53228927426933 22.783715641836523 0 -1 0
1899 1 30.745970630359434 37.92187950322501 27.95446958690922 0 0 0
2560 1 36.50256851155676 38.56882260801784 24.22252568295141 0 -1 0
5335 1 32.61223722628261 36.95121221243962 28.832077330900038 0 -1 0
2559 1 35.98584832996219 37.16040490198385 25.12335537771936 0 -1 0
5336 3 32.471680040002745 38.52558927956325 27.6441446030894 0 -1 0
5337 1 32.8851617323091 39.20319682112588 27.041933367797228 0 -1 0
2563 1 36.46679373112813 35.92931312573348 22.756133772397835 0 -1 0
2562 1 36.16562266810746 37.55581356681279 22.187872593634523 0 -1 0
2558 2 36.60124509164263 37.477401501915416 24.235270696384095 0 -1 0
2564 3 34.54567586969424 36.74189968622376 23.07698165746506 0 -1 0
5975 3 33.184992296016986 36.25743432968743 25.83461123048292 0 -1 0
2565 1 34.170784790835974 36.559127418494214 24.00919980105574 0 -1 0
5976 1 33.25983921735264 37.25067464821367 25.996664983309937 0 -1 0
2561 2 35.99167908008078 36.92484466591225 23.004170957341433 0 -1 0
4919 2 36.827575765603015 32.90129148500173 27.691491675705755 -1 0 0
5333 2 33.22268569625503 37.81407550658773 28.602787833262582 0 -1 0
4922 3 36.17286681055437 32.57225190200556 28.852485519083253 -1 0 0
4921 1 37.473433488229176 33.77576575144107 27.942534896775232 -1 0 0
4916 2 35.96673026610117 33.3245326910734 26.56271608558326 -1 0 0
4915 1 35.53576005035222 34.26101164115214 26.876801530295328 -1 0 0
4918 1 36.617537796090076 33.409132434113936 25.642634640412567 -1 0 0
4920 1 37.518725128877335 32.07865838689989 27.478236061508948 -1 0 0
4917 1 35.229206730332535 32.602558334867275 26.164922788457005 -1 0 0
4923 1 36.24914242491748 33.33071200587038 29.447641255395066 -1 0 0
5664 1 32.69258228250832 33.4818943225484 27.3281881289939 0 0 0
5331 1 32.49586784320014 38.73845409009734 30.30651800225297 0 -1 0
5334 1 34.14041660384807 37.524678627590255 28.136625163276307 0 -1 0
5330 2 33.43548215142536 38.59044861888358 29.83222559877923 0 -1 0
5329 1 34.12548213013222 38.158800221953065 30.52331937434769 0 -1 0
3579 1 35.617336806207284 36.2105862581058 28.940922931140893 0 0 0
3576 1 36.4898861591465 38.17862567711084 29.942017279360623 0 0 0
3575 2 36.6912364648784 37.25686652206305 30.45123714424579 0 0 0
3578 2 36.43426715574649 36.032501701147346 29.61328209108335 0 0 0
5332 1 33.79532915176763 39.57108022484392 29.692298115823615 0 -1 0
3581 3 36.24525417216308 34.84961716288884 30.334794324201017 0 0 0
3580 1 37.224417666804705 35.858464405718834 28.88237561365569 0 0 0
5773 1 4.8394157016111965 9.419701684162993 40.785872391108626 0 0 0
328 1 6.303416037647354 2.421049553678558 31.666707893213083 1 1 0
326 2 6.794776898744148 2.6542704191237343 30.685260057044562 1 1 0
2973 1 3.039894479554225 8.353651818582604 32.0137984956241 0 0 0
2974 1 2.318696976335561 9.160098453694228 30.617500168049148 0 0 0
5775 1 4.080815874900622 7.312413228481023 40.448655424097936 0 0 -1
850 1 3.2484231205639014 5.320559557738104 39.94968823929741 0 0 -1
853 1 2.3455558953786504 2.8359056131178058 40.26406720083793 0 0 -1
851 2 1.6958007784860318 3.73120096481942 39.980660240839136 0 0 -1
849 1 3.0787565182734835 4.108446766054353 38.56811547284309 0 0 -1
848 2 2.5662231080115894 4.77334163486858 39.245021063303305 0 0 -1
331 1 7.480952942356509 0.6878466824517954 31.10673922889293 1 1 0
490 1 6.8574864075850055 8.92671435734387 39.95688884839687 1 0 -1
489 1 5.517792190183464 8.918348748441673 38.79637577124181 1 0 -1
488 2 6.5498673588059 9.159259084641768 38.95625320695173 1 0 -1
487 1 7.098100832550891 8.608465661004386 38.22519733968819 1 0 -1
4945 1 1.7128503413471812 0.3344383410015588 39.96108518111803 0 1 0
4942 1 3.3979185186686207 0.5277852681584582 39.622139890586844 0 1 0
400 1 2.2893649832302927 4.043366281872559 31.37964915601565 0 1 0
327 1 7.572032629508495 3.406671629847725 30.84211492621785 1 1 0
852 1 0.8063980234638874 3.474476909246988 39.412215694407685 0 0 -1
2080 1 3.857211337616773 5.042697359446618 34.89441342480374 0 0 0
2082 1 5.140575272607514 4.072857825521685 35.66566270056628 0 0 0
2083 1 5.578513211740247 5.1695224501479755 34.431044851923005 0 0 0
5088 1 1.4310422977681034 5.694144545482976 35.581275690825976 0 0 0
5086 1 0.5595932900069195 4.556171450604331 36.43650288812733 0 0 0
5087 2 1.416574493504819 4.6320255795354015 35.80848619565394 0 0 0
5091 1 0.5005401407992133 4.395864200033559 33.87404880105955 0 0 0
5089 1 2.3222446454977623 4.36033040679745 36.39385525102207 0 0 0
5092 1 2.149292552456646 3.8221881303495695 34.078032151984836 0 0 0
3389 2 1.321340105996088 9.46899841021155 39.333923903374576 0 0 0
5090 2 1.159717049996089 3.8961495718634476 34.57494066698442 0 0 0
5093 3 0.4729790660494951 2.6406516419419486 34.86512729496858 0 0 0
404 3 0.923895811569638 1.7070443193145672 31.179766271411978 0 1 0
3392 3 1.2400448214991475 9.479390599182905 37.89824450540324 0 0 0
2086 1 4.521269301552368 5.867152314391962 37.204409790948915 0 0 0
3123 1 7.124788391543921 1.2556962040404396 35.84060651559322 1 1 0
3122 3 7.889082764047057 1.9671013797360868 35.749809415993994 1 1 0
2081 2 4.889973808743412 5.031265935478891 35.22660071430541 0 0 0
3348 1 7.141079102280298 2.937053957729761 36.91676597795195 0 0 0
3341 2 7.114620768607859 3.429894861542245 39.934549024968085 0 0 0
2085 1 5.1013517078238175 7.0890049702782605 35.93314174797024 0 0 0
2084 2 5.204472648340185 6.064215676851064 36.33665582715169 0 0 0
3347 3 6.6449138255778415 3.468964427777225 37.56043612614295 0 0 0
2979 1 1.5821211969278486 9.374696842227419 34.403384891146594 0 0 0
2087 3 6.581925034980843 5.922404058655928 36.74983188481003 0 0 0
2088 1 6.714197415092814 5.035244780475762 37.22119483063672 0 0 0
3343 1 8.186048121577453 3.4905666095430643 39.66043115175831 0 0 0
3119 2 7.930198007318981 2.3573251838873923 34.38329953621271 1 1 0
3120 1 6.957270566371652 2.8629520382348503 34.13514031065104 1 1 0
3344 2 6.284710946116969 2.8582668889032976 38.808061068123834 0 0 0
2978 3 1.2654223502153126 8.680811687726838 33.76306842760853 0 0 0
3121 1 7.908636811457687 1.469453052390184 33.745001325078356 1 1 0
3345 1 6.388726076340675 1.775524388146036 38.76051162661627 0 0 0
3346 1 5.229783149014227 3.1805720801942794 38.93276400455665 0 1 0
3118 1 8.705572908407122 4.3449252610213565 34.69470280427035 1 1 0
4383 1 7.720937888757641 7.194934718698854 36.812102081514396 0 0 0
3116 2 9.05344555555284 3.371698079382437 34.2183059286684 1 1 0
139 1 7.28755514266562 7.464043919465886 33.19963931777315 0 0 0
3342 1 6.940212125393031 4.454193549652963 40.14649072594895 0 0 0
4382 3 8.492372805752433 7.728341518201317 36.62587604439196 0 0 0
3117 1 10.008452364982553 3.082931370180925 34.56361271623676 1 1 0
2975 2 1.1509345604966446 9.253127581718305 32.51733735109527 0 0 0
138 1 5.789471104887458 8.254614871967204 32.56523094221845 0 0 0
137 2 6.807487052173792 8.427115485286784 32.848256199196456 0 0 0
2972 2 2.0612963831705837 8.513600736699464 31.45138545539714 0 0 0
2977 1 0.10078667289241257 9.368372886714441 32.16904097955263 0 0 0
6219 1 0.5243131335200413 1.2578364268217002 35.703996850837534 1 0 0
144 1 8.39506989889337 8.89077255711863 35.30086687786056 0 0 0
136 1 7.450148525276009 8.58428517945916 32.02737458886909 0 0 0
143 3 8.27135391308772 9.391007712056556 34.44218840399566 0 0 0
3393 1 0.3778169289341357 9.721123986266004 37.55937242632366 0 0 0
4381 1 9.836226633396539 6.972896619102506 38.160866775084926 0 0 0
4379 2 9.671116189089123 7.066051246815295 37.02211239945548 0 0 0
2971 1 1.591028503044604 7.534005047607764 31.073000104801235 0 0 0
2778 1 4.683059201397508 1.912244939032983 36.29388083395731 0 0 0
3115 1 9.232303100067247 3.5017309133801104 33.106154710540935 1 1 0
3391 1 0.33664600646834514 9.085770730163404 39.72862198229688 0 0 0
2777 2 4.551782051896316 0.9734895939587925 35.86643638880258 0 0 0
2773 1 4.569173675746416 1.7183909761134806 33.75935732327014 0 0 0
2779 1 3.8444287859434247 0.37394823072887734 36.44152371265264 0 0 0
2774 2 4.039469516545436 1.063389231683762 34.454013452548594 0 0 0
2775 1 3.0328277083069373 1.681696388396428 34.365750261067824 0 0 0
4380 1 9.714717221396999 6.0287485544053006 36.659944213254484 0 0 0
3609 1 9.886453355006958 10.065580323747133 34.102575795955985 0 0 0
847 1 1.9964808032124162 5.567985570196645 38.78154265596955 0 0 -1
6218 3 0.5448077385125359 0.4548010229374139 36.286794953486535 1 0 0
3390 1 2.07053538747304 8.706411635550223 39.64423710188493 0 0 0
142 1 6.236361099256967 9.339777492344597 34.875780904665895 0 0 0
140 2 6.956232276906577 9.405326470717586 34.012586629123994 0 0 0
2358 1 2.2039061956199606 10.164019551550922 36.42426949089917 0 0 0
2355 1 4.0863021105555895 9.866671509384199 35.09019122789579 0 0 0
3601 1 9.353447695817758 9.51278048933354 31.602056585427857 0 0 0
405 1 0.9603495717996238 0.7418310167442332 31.040567942173478 0 1 0
2780 3 5.847764180326763 0.24964762342477193 35.898150638619846 0 0 0
2776 1 3.8721777357972513 0.13511995570918978 33.97905273369736 0 0 0
361 1 9.811342357428254 0.24429515400854665 37.080801832154826 0 0 -1
3430 1 18.76519544436534 4.796737833181501 40.58365873805308 0 0 -1
2574 1 16.154113651851304 6.835442242868705 40.77190538232114 0 0 0
1806 1 13.420042414277045 9.097819174279067 40.46467832259635 0 0 0
3076 1 11.71587951367029 0.8318953656864687 31.31968077551004 0 1 0
175 1 10.98478451588079 5.259212988966503 38.886635920314234 0 0 0
4376 2 10.853984676355198 7.8146905882106115 36.443676215397076 0 0 0
4377 1 11.088685697349803 8.744673963230722 36.9005593509524 0 0 0
178 1 10.478191386114005 2.906718447174151 38.37023701277591 0 0 0
177 1 10.469477285604505 3.1267266516270795 40.268579546670814 0 0 0
176 2 11.04629908884221 3.1303739563121717 39.341438033216455 0 0 0
4378 1 10.720371375880513 7.970229268272657 35.38988585745539 0 0 0
3606 1 11.138373344202472 8.505595512734391 32.72987205959454 0 0 0
3431 2 19.115343418868115 3.7649710172729467 40.716857474598534 0 0 -1
2572 1 16.11375474844436 4.868688718480107 38.799720774254226 0 0 0
2573 3 16.539457323566957 6.560892227520862 39.9606203331989 0 0 0
2571 1 14.689042633008398 5.680622978792425 39.57983305522189 0 0 0
2570 2 15.687329792589228 5.8459774287032245 39.07459664957219 0 0 0
3770 3 12.978768330803948 6.779200729844123 30.770279303914844 1 1 0
174 1 12.165069679796735 4.780675100309391 40.1552952174118 0 0 0
172 1 12.531572636435662 4.515044299714056 38.41869952269088 0 0 0
173 2 11.723090487083981 4.530490604631545 39.19326987994774 0 0 0
3432 1 19.371389245635502 3.4769732759438177 39.7101596226124 0 0 -1
3766 1 10.40585356668567 6.422475659715702 31.07748340621988 1 1 0
2169 1 18.048195064001156 8.07447378359293 40.28045513308063 0 0 0
2168 3 18.98060792219405 8.363409278409632 40.38046217622975 0 0 0
2952 1 16.443640276919325 4.579415249439197 30.62701148161654 0 0 0
35 3 17.304093544627964 7.687298962502586 31.15436648447667 0 0 0
36 1 17.008876728040303 6.776568937232262 31.001867761808185 0 0 0
30 1 18.644819532248682 7.6406315040261 33.23222335897231 0 0 0
179 3 12.095310268512689 2.2113225493501147 39.48048187049395 0 0 0
32 2 18.75538110227216 7.636687037944061 31.172545356539064 0 0 0
29 2 19.285186423005666 8.140512797244057 32.453423203086786 0 0 0
31 1 19.15630454124873 9.19485781965445 32.63190479976887 0 0 0
2951 3 17.192663323344913 4.81727229320978 31.20413235013707 0 0 0
180 1 12.069690521002366 1.5533923906930802 38.76310572208674 0 0 0
5220 1 20.339489675154137 2.2918068074844604 37.34495212823651 0 0 0
5212 1 18.97395524250971 6.194790613831674 37.43194370147685 0 0 -1
5216 2 20.084321849891726 4.204310578617316 37.139456047966384 0 0 -1
5215 1 18.36278186368335 5.061796347653091 36.143852143843006 0 0 -1
5213 2 18.88843367188095 5.159951441466258 37.1254083431434 0 0 -1
4639 1 14.848823757102222 3.833220776295089 36.62004866429267 0 1 0
368 3 12.538117350785324 1.1059857598236162 36.93336703994654 0 0 0
5214 1 18.134859470906623 4.650612800067821 37.77192840151731 0 0 -1
5219 3 19.572271776121752 2.8542314454612123 37.15377223887312 0 0 -1
2950 1 16.45783660342098 5.43690625989274 33.04676660281233 0 0 0
2949 1 15.974297178805056 3.897461437884659 32.500947408664835 0 0 0
2948 2 16.785427132225696 4.608260877462244 32.542185162915416 0 0 0
369 1 13.27994677519385 1.3056843681653674 36.39830480184829 0 0 0
417 1 13.810720773057113 6.1121824768253585 34.49863244595199 0 0 -1
415 1 12.937948337613653 6.3840631513409445 32.84814308399019 0 0 -1
418 1 12.04965981711359 6.362701068924923 34.30993146994731 0 0 -1
421 1 13.362922973251827 3.950208019561422 33.01741360690178 0 0 -1
416 2 12.92989904090513 5.890523343132772 33.881091155090886 0 0 -1
422 3 12.627520106030348 3.657862336808658 34.91414174651854 0 0 -1
419 2 12.656462040610993 4.405043260364804 33.714298518551274 0 0 -1
420 1 11.623132706773019 4.262084999599495 33.28153033954898 0 0 -1
423 1 13.195276539944972 2.9018712303484757 34.715178786355104 0 0 -1
2946 1 17.688315499178024 3.647549488338987 34.29665235848528 0 0 0
2945 2 18.0116696574863 4.133265870552991 33.3209300834024 0 0 0
2947 1 18.80048567869857 4.950378573036787 33.457090412840515 0 0 0
2944 1 18.446214108754763 3.2322148181915 32.8592158929686 0 0 0
4637 2 15.2359846651441 2.8299897564281027 36.99648921900728 0 1 0
4375 1 11.752135458331042 7.208598184142613 36.667704531683675 0 0 0
4643 3 14.535949249284068 1.8436037845503794 34.82486021055378 0 1 0
2568 1 14.908007966547187 6.044221029268139 37.10738788179737 0 0 0
3072 1 13.014709539742144 2.9041892275700354 31.365620452504473 0 1 0
3070 1 13.673285914119898 1.6330233222024702 32.46210656877137 0 1 0
4636 1 16.08375218306682 3.067777707937982 37.55816030003559 0 1 0
4638 1 14.45656245536969 2.43498898520216 37.62618792440747 0 1 0
4640 2 15.639879204481051 1.9921367615960257 35.80250182541206 0 1 0
3073 1 14.452534580009148 1.9478820012505984 31.009066208113346 0 1 0
4641 1 16.487972107801404 2.405864771944101 35.25015927042048 0 1 0
3071 2 13.443445815652435 1.8814724652347221 31.455375903941853 0 1 0
4317 1 19.92458799033043 8.94148810393399 35.02681477722726 0 0 0
2567 2 15.582939706740925 6.59030773482651 37.7774037999767 0 0 0
4642 1 15.881365168042755 0.964969725507375 36.07986056198389 0 1 0
34 1 18.932416778414744 6.5651490434479935 30.946809151442597 0 0 0
28 1 20.247125464583345 7.783831468531313 32.74795328096165 0 0 0
2569 1 16.524067742450434 6.684691010186073 37.30790423721257 0 0 0
2566 1 15.221389576936659 7.575027285081335 37.914171112663574 0 0 0
3607 1 12.179692701488671 9.861427664194927 32.39045023294066 0 0 0
3605 2 11.2000085802476 9.583247444841843 32.55655924494209 0 0 0
367 1 11.175626260028096 1.0918299618133274 35.360358033412524 0 0 0
4644 1 14.876623073919855 0.9883961356530627 34.361265122518894 0 1 0
1234 1 19.92991840664806 3.8797261671314716 31.32012888764055 0 1 0
1802 2 11.623570761486214 8.028639770843414 40.14918275879265 0 0 0
1801 1 12.011819814172883 7.586533532855111 39.223874610738015 0 0 0
3507 1 13.620540636682597 9.151628808813115 36.00648310515654 0 0 0
3074 2 12.596341663701663 0.865933124763617 30.736083448823727 0 1 0
3748 1 18.584249378574114 1.0373285053204009 36.27199008706605 0 1 0
365 2 11.691720804174887 0.4109770486920713 36.00478279403355 0 0 0
1805 2 12.379781687273667 9.344742617753576 40.38252233171098 0 0 0
1807 1 12.19977503032622 10.12710074688497 39.5708662954918 0 0 0
4316 2 20.312054520321478 9.551810085805338 35.86284346246844 0 0 0
4314 1 20.158748700846463 8.020228481226223 37.2607743147438 0 0 0
4313 2 19.777685856182945 9.014170260627532 37.23107010395861 0 0 0
4315 1 18.72447018321798 9.117662434888015 37.2938293553063 0 0 0
1803 1 10.51675084474797 8.099876879109331 40.066492586462054 0 0 0
3505 1 15.497725900661388 10.084758513207035 37.188137279741255 0 0 0
4312 1 20.153602408022543 9.541820236069148 38.08404340837165 0 0 0
3602 2 10.272832391887498 9.996433286007639 31.38233331787343 0 0 0
2498 2 17.942100299513616 0.8977716380076719 32.05450494490563 0 1 0
2499 1 18.61962033728954 1.2611809843305968 32.76121439545161 0 0 0
3746 2 18.50032232256753 0.025367053416715576 35.84076382635113 0 1 0
2500 1 17.151479130456273 1.6292092754820537 32.07772495171261 0 1 0
226 1 21.591343202859928 6.823866838824328 40.40995385436248 0 0 0
3550 1 23.081960795828625 0.09614863354490917 40.199587322266275 0 0 -1
4963 1 29.306095753839937 7.3667266655402175 38.01723548691164 0 0 -1
2161 1 20.63667146958019 10.196948102514648 40.46114275523598 0 0 0
1241 3 23.00643717109152 2.6662049475196263 30.90802177123267 0 1 0
4661 3 27.403581214598105 3.259399244471581 30.594980541911873 0 0 0
3494 2 30.501083773173352 1.1541466339412274 30.60680125497538 0 1 0
4659 1 28.10364770204265 5.1122955288743634 31.23301186808066 0 0 0
5264 3 30.519371697592717 8.575521156605648 30.62448331172641 0 0 0
3493 1 30.287320992190985 0.2734958566318654 31.188531430828583 0 1 0
5218 1 20.725557290032047 4.39421748303602 37.962047159691075 0 0 -1
3549 1 21.434350491938886 0.2244630416614132 39.61300249063026 0 0 -1
3548 2 22.448752965555137 0.16536351094003518 39.27654919207338 0 0 -1
1236 1 21.48967599199998 4.797953927055401 31.179769556660222 0 1 0
1237 1 20.994083247105113 3.730208207281355 32.641756237995 0 1 0
1238 2 21.622609716998014 2.7039837060860434 30.849787275025548 0 1 0
1239 1 21.24145688132694 1.770493751722611 31.207780356109744 0 1 0
3552 1 22.66348258557033 2.2054953887846236 39.2246895680916 0 0 -1
3554 3 21.987342386873195 1.486422883660694 37.34396953176991 0 0 -1
3551 2 22.77711725743265 1.3841171125525111 38.41874313948735 0 0 -1
3553 1 23.872100677763182 1.3989753177331024 38.199607582084944 0 0 -1
1235 2 20.978866590418725 3.911376338937312 31.520734143119096 0 1 0
4658 2 27.214441632535383 4.651150202418985 30.71506251399772 0 0 0
5217 1 20.657937433069105 4.45902775091942 36.18126634516633 0 0 -1
5131 1 23.26576873495249 6.9086832108266325 32.35082610782206 0 0 0
3646 1 24.831708774627423 3.5195936459705335 37.97920146178455 0 0 -1
3648 1 26.12250916950861 4.5317071022386335 38.59850815910548 0 0 -1
3647 2 25.5988346584907 3.6314005898393598 38.772804270980586 0 0 -1
3649 1 25.165907106612714 3.616126133822695 39.82684145909157 0 0 -1
5133 1 22.469035193341078 5.457877966131849 32.84999965017187 0 0 0
5134 1 24.162122506243506 5.5611166067911775 32.95796593489534 0 0 0
5132 2 23.256458262946605 6.089229918413624 33.13799723114752 0 0 0
3555 1 22.405722247807553 1.9503930447579694 36.592295036172665 0 0 -1
5137 1 22.101354972831807 6.997807001953551 34.76564104001505 0 0 0
5135 2 23.144881223803186 6.613856379123184 34.5970965473162 0 0 0
5136 1 23.86886168324643 7.365749337104148 34.90070692308844 0 0 0
228 1 21.585930261822494 7.334827807225825 38.71475248053138 0 0 0
3651 1 26.02006161709153 1.427553368347363 38.79146166776116 0 0 -1
2393 3 23.03311333826332 3.05800886803407 35.33361869543768 0 0 0
2394 1 23.10130739433392 4.039116147981634 35.40136577431264 0 0 0
4660 1 26.290749192385626 4.876488742714476 31.266297486447325 0 0 0
3652 1 26.956287701285945 2.3585967159366206 37.711460788933664 0 0 -1
3650 2 26.513350847375694 2.4169644324812105 38.656891128629276 0 0 -1
3653 3 27.61910975905626 2.529706769860852 39.65493337246426 0 0 -1
229 1 22.767277120832233 8.008477120420899 39.80309872326966 0 0 0
5138 3 23.315922503088384 5.499988890300159 35.54256485358627 0 0 0
3654 1 28.348433461400788 1.9534618391239313 39.31149760289856 0 0 -1
227 2 22.205382127022524 7.090869532845987 39.567537471122336 0 0 0
232 1 22.90289421784045 5.16205236464168 38.755717960978835 0 0 0
231 1 23.954927771041206 5.945938392308926 40.06146494632038 0 0 0
230 2 23.271525046170726 6.078020037305441 39.12752387429895 0 0 0
1204 1 23.17358080400922 9.507647534439315 31.537436973057634 0 0 0
5379 1 27.00749394919674 8.492408930073397 31.984278176377856 0 0 0
5378 2 26.43546268734371 9.416450490959658 31.83796357483633 0 0 0
1205 3 22.802426805867256 9.73968542211341 33.53167768579405 0 0 0
233 3 24.067727252580344 6.605726478860079 38.009764263067495 0 0 0
5139 1 23.47544798246412 5.955935313837365 36.44984948019503 0 0 0
234 1 24.254763774590934 7.513376847514436 38.19806789619327 0 0 0
1202 2 22.33277397429474 9.776160467444152 32.18612619349539 0 0 0
955 1 28.195603955132366 8.799802429326393 34.218166523836054 0 0 0
956 2 28.19947220605229 8.380681062223175 35.23603155887943 0 0 0
961 1 26.734381107546987 7.6425763702062 36.65313021844785 0 0 0
959 2 26.831969518374972 8.093903036125589 35.600731958465325 0 0 0
1206 1 23.74922128138331 9.749902202998934 33.39207509556203 0 0 0
5381 3 25.441476112377938 9.618394341849486 32.855016135891766 0 0 0
5382 1 25.679508123034218 9.313437485182591 33.76341043055981 0 0 0
5039 3 24.769021197743804 9.408632046793745 38.07491844343084 0 0 0
962 3 26.17969610755348 9.38355734103471 35.516888085241554 0 0 0
963 1 25.46412986743567 9.460229376916484 36.16901709303566 0 0 0
4662 1 27.7797997396086 2.8897351891352554 31.443451376724436 0 0 0
5984 3 28.54582437059329 2.6378580459232364 32.969370562225905 0 1 -1
5982 1 28.460470202350024 2.0155597582750615 34.88908725786515 0 0 -1
5978 2 27.97061896047881 4.1355998439763395 34.7215805576266 0 1 -1
5977 1 28.98396899483857 4.449200512123063 35.05886135198784 0 0 -1
960 1 26.336516363504643 7.335261599372922 34.98059557018737 0 0 0
957 1 28.79389448147756 7.430452813950636 35.1828117190511 0 0 0
958 1 28.603384329951936 9.03212807863474 35.955910383433206 0 0 0
2389 1 24.084176205421883 1.1684554785324335 33.41567727710496 0 0 0
2387 2 24.376107588559396 1.1771972868064262 34.460943004285895 0 0 0
2386 1 23.554880976719808 0.6349381217844016 34.944346974460764 0 0 0
2391 1 25.042845655567145 2.847007914316932 35.82608555831318 0 0 0
2390 2 24.374701242437187 2.6635288122223044 34.96619807829325 0 0 0
2392 1 24.857493188886327 3.3472507302673997 34.1959825803934 0 0 0
5980 1 27.5040153004224 4.807470191120632 33.98269790895769 0 1 -1
5981 2 27.91774229042293 2.7383101194177453 34.29340011484056 0 0 -1
5979 1 27.291108781257897 4.161184060331619 35.574816708520096 0 1 -1
1867 1 27.2249353768561 0.9065870449407816 32.106564191689166 0 0 0
2852 3 29.894049318944955 1.2399241610142844 38.68867979978784 0 0 -1
2847 1 29.474419991364243 3.9494485276956013 38.21843385489625 0 0 -1
5040 1 24.064023464698295 10.151562708519856 37.943556465266454 0 0 0
5037 1 26.811297851773343 9.47977806822674 38.642222954221666 0 0 0
5036 2 25.87542769790864 9.942603788635855 38.87106543345328 0 0 0
1203 1 21.576559005999787 9.056745050142924 32.04600894477633 0 0 0
5983 1 26.930959880674898 2.3319569721326685 34.09271236957362 0 0 -1
2853 1 30.23048895872497 0.5883637826246552 39.339313797927886 0 0 -1
4960 1 29.15058635870897 8.992445259844006 38.61342410228382 0 0 -1
2846 2 30.319844005246694 3.4479159477955488 37.71982075421716 0 0 -1
2848 1 30.040359028395322 3.2185251256858614 36.68690583949461 0 0 -1
4961 2 29.25526314991547 7.936270523979356 38.860971917814005 0 0 -1
5985 1 29.396999572258668 3.119614069915207 32.948077771860696 0 1 -1
4962 1 28.47371841306971 7.532879457476485 39.511278198524025 0 0 -1
4320 1 22.157111538084745 9.632429768876266 34.93060977796396 0 0 0
4319 3 21.78060295921094 9.46582913806869 35.892371268927285 0 0 0
5038 1 25.70574103646883 9.757584379402662 39.941454696884236 0 0 0
1033 1 30.29471995043864 9.083180189110932 33.983005348487886 0 0 0
1032 1 30.485746273000338 7.566908312250891 33.07343940658352 0 0 0
2388 1 25.33728275987064 0.6892382484086365 34.64553033061516 0 0 0
3927 1 36.76484155139008 5.244582596427277 40.30796104515828 0 1 -1
3930 1 38.76796392846886 3.606048281256494 39.966622562880204 0 0 -1
4967 3 30.692656564815636 6.49837946054027 40.09801381937642 0 0 0
3496 1 31.080615648749596 1.7845965514668811 31.239631206562304 0 1 0
4965 1 31.520621210435266 8.21440576400375 38.99157209715479 0 0 0
2850 1 31.74973543350123 1.9716026053915516 38.26862093583197 0 0 -1
5259 1 30.799750548093186 6.154861739934162 31.22490656873319 0 0 0
3931 1 39.167149199448716 5.193808837676946 40.422963077827895 0 0 -1
4515 1 33.58036732302532 7.584261260379901 31.234242982256774 -1 0 0
4516 1 35.28150784590346 7.3246015598716605 31.55013677165307 -1 0 0
4514 2 34.554026692165976 8.124734184116138 31.389509298852456 -1 0 0
5094 1 40.76149778274618 2.392737004785271 34.04441544577515 -1 0 0
3474 1 40.444721689936536 1.9893942829463631 32.17166233308626 -1 0 -1
1960 1 40.204079975473554 9.15454278167565 35.04161521733476 0 0 0
1029 1 32.5014196318703 6.968400014565875 34.33204613242324 0 0 0
15 1 40.15969792031166 7.079367669296779 36.30477688917675 0 0 0
4966 1 30.65241089572114 8.60423793887332 40.46759169066933 0 0 0
2849 2 30.804256428397093 2.356346137574615 38.64606972548692 0 0 -1
3473 3 39.72502192609096 2.4158048385517468 32.76751614231988 -1 0 -1
10 1 39.42030335515543 5.360954379291412 38.09318626962413 0 0 0
12 1 38.976999258193 4.827574263486943 36.443688807101665 0 0 0
6211 1 40.28476155091328 0.2758126287592279 38.55027833571518 0 0 0
3472 1 37.81088267894095 2.392646905756278 31.60341668476339 -1 0 -1
3470 2 38.422837095917664 1.873648700721661 32.32489359074548 -1 0 -1
1317 1 35.705174868950834 5.5253456042121565 35.20422775747323 -1 0 0
4964 2 30.624948273498525 7.853853029470294 39.62642063397316 0 0 0
17 3 39.009962507702475 7.829187797010244 37.86208038537727 0 0 0
18 1 39.03924794680106 8.809882941363854 37.58720300328939 0 0 0
3467 2 37.58470270597501 1.822138550418259 33.59925911720236 -1 0 -1
13 1 37.71403762595828 5.564981199349862 37.41920909869945 0 0 0
1315 1 36.69317653269282 5.548212323191946 33.87359827249813 0 0 -1
3466 1 37.28730488116901 2.8107647045245736 33.89296963209526 -1 0 -1
2845 1 31.032893998311295 4.216978920275134 37.67591965954541 0 0 -1
2851 1 31.00481071495881 2.863890110475214 39.67688272753568 0 0 -1
1318 1 35.46425919066466 6.849492624604328 34.03649668785217 -1 0 0
1316 2 35.673855845308076 5.75580668559242 34.21314621442377 -1 0 0
188 3 31.27827658637561 3.2104837400412034 33.181930331442686 -1 1 -1
1320 1 34.58492223040939 4.878266051064267 32.42392817213618 0 0 0
1319 2 34.71556758072879 4.751132266832467 33.50858770965058 0 0 0
1321 1 34.92143219886372 3.731644052953592 33.8119795739473 0 0 0
189 1 31.95527507437342 3.8940711075652956 33.2531572680264 -1 1 -1
1322 3 33.33988910646962 5.001821867668096 33.96938383884532 -1 0 0
186 1 30.635901339643198 1.8811100127619338 34.53434600308029 0 1 -1
1323 1 33.24791662367095 4.3930966173558685 34.69271322743345 0 0 0
3337 1 35.39598437316543 3.8149054035914625 37.10562123357463 0 1 -1
185 2 31.62030664027715 2.264702604897547 34.24893106731582 -1 1 -1
3331 1 33.505062431172874 1.427333844474744 36.56663413422262 0 0 -1
3332 2 34.42751399501862 1.9125902726501733 36.42901420700306 0 1 -1
3334 1 34.50955251317584 2.1343866449021602 35.37383437224583 0 1 -1
14 2 39.15989120634735 7.009632506139591 36.717188783224714 0 0 0
16 1 38.534873956831994 7.390343382415977 35.93261899465468 0 0 0
3336 1 34.275905566104505 3.0933982964009346 38.19721951198638 0 1 0
11 2 38.788101845205745 5.597928587920274 37.19992428575821 0 0 0
3335 2 34.37354268017315 3.2792694535120264 37.13366079090516 0 1 -1
2784 1 38.891260233800196 7.882096818877291 31.016925250703306 -1 0 0
2785 1 39.850753501550614 6.5744757538210035 31.522735845194646 -1 0 0
2782 1 38.370992894097235 7.079213015715691 32.37285472279883 -1 0 -1
3338 3 33.34980770363866 4.026937439971668 36.59918162569958 0 1 -1
3339 1 33.32124074337178 4.895162056800613 37.123334249701024 0 1 -1
2789 3 37.86994608242281 4.837158726853228 30.77556252578033 -1 0 0
2783 2 38.8246066194949 6.941644321781077 31.447119703387294 -1 0 0
5868 1 32.47831267175798 6.2485255093597365 38.660981290226694 -1 0 0
5867 3 33.28924468698381 6.4337925640595826 38.125677910831975 -1 0 0
5866 1 34.10994667354339 7.933463622449819 39.29644770683313 -1 0 0
5864 2 34.34728912082755 7.030269984137664 38.740294285204534 -1 0 0
5865 1 34.750672474849 6.311470848026275 39.4488843743926 -1 0 0
3333 1 35.31647602044731 1.4070319527015815 36.70036095797667 0 1 -1
181 1 31.998311668941554 0.40902547429457947 33.177896738989666 0 1 -1
1035 1 31.416063657499148 8.747682133207547 31.696922780375825 0 0 0
5863 1 35.40403740231348 8.137484799942257 37.0090253212035 -1 0 0
5861 2 35.43593115912488 7.2818356439571135 37.738778893757626 -1 0 0
5860 1 35.595853416442054 6.303048394293135 37.187438924789745 -1 0 0
3469 1 36.615256498678676 1.3543120589383397 33.4912263301882 -1 0 -1
5862 1 36.30823524385255 7.497899296573291 38.29422330700873 -1 0 0
3471 1 38.574781396847484 0.8152919012783412 31.90120717881202 -1 0 -1
1030 1 30.899216705715435 7.089797673158975 35.14636917003403 0 0 0
1028 2 31.72110365292987 7.686685714389029 34.682462765813526 0 0 0
1027 1 32.05493214328282 8.340025310415742 35.43802309934735 0 0 0
1958 2 39.51044552391735 9.964422643154883 35.28143893708237 0 0 0
3468 1 37.99538669862019 1.1840711646184605 34.381872401599395 -1 0 -1
6217 1 39.326327422390534 0.5070980459307274 35.90485525823394 0 0 0
187 1 32.02055884402617 2.8641262125673426 35.110148922555204 -1 1 -1
1959 1 38.62600506055194 9.399190251830522 35.34814284653903 0 0 0
182 2 32.52339276402268 1.1780295520212947 33.755515080875696 0 1 -1
184 1 33.25762264007859 1.4002728030725524 33.01057918183961 0 1 -1
1034 3 31.85085004771892 8.987995276376646 32.63628195440652 0 0 0
1031 2 31.012564678432256 8.337234962956119 33.569916052119034 0 0 0
4517 3 34.33604593287402 8.913725645805748 32.54844461692416 0 0 0
4518 1 33.32946858677676 8.966754745212194 32.62260141942401 0 0 0
2838 1 34.18070460570773 9.945262606698309 35.025676225734415 0 0 0
183 1 33.120025576627256 0.6458654945984853 34.516496125404416 -1 1 -1
5907 1 1.9025203457085513 15.938354190827956 40.71234773089071 1 0 0
5912 3 4.061176416192478 17.215555916782687 40.21492862359776 1 0 0
2051 3 10.06143804879049 13.486556892651107 40.735730508350976 0 0 0
5913 1 4.522282135004675 16.47881629269391 39.76592080912303 1 0 0
4612 1 9.003032211272945 19.801429462465578 40.74320805917647 0 0 -1
5020 1 7.768065791918161 13.25889019039429 31.55891186294602 0 0 0
5019 1 6.440831363575451 13.266535466684811 32.57732400475256 0 0 0
5018 2 6.746926506511298 12.994272742693784 31.570463910507005 0 0 0
4293 1 4.469080561143535 16.899908588109923 30.70511247489412 0 0 0
4292 3 3.5892251672260462 17.318176300372844 30.618944772209737 0 0 0
2297 2 6.767472733757126 18.918621558841945 30.80392341155345 0 0 0
2296 1 5.661511835310181 19.160161003419134 30.84911545769726 0 0 0
2299 1 7.142023005192005 18.608077577158 31.745776991516273 0 0 0
492 1 6.501129184250742 11.104709937129954 37.82416097330668 1 0 -1
2976 1 1.5116036936105655 10.31681881538754 32.53501615203285 0 0 0
5631 1 2.8232290564493883 19.57276320899733 40.662642400021106 0 0 0
5021 3 6.111764970784824 13.83217905479731 30.62296613227334 0 0 0
2303 3 6.433765170087104 16.462910917537528 30.851848149053243 0 0 0
4290 1 4.144881610337845 18.541406814018984 32.20949393091549 0 0 0
4289 2 3.3241414631815225 17.962597824686373 31.832127946028052 0 0 0
5015 2 6.505744140374829 11.556790633912746 31.354763310273476 0 0 0
5017 1 7.234972736223334 10.873692059935003 31.723015150914797 0 0 0
4291 1 3.1289420184091115 17.225218973305616 32.6305230509548 0 0 0
493 1 6.237321159875587 11.169093310446746 39.62040136558324 1 0 -1
491 2 6.806724560560274 10.644314849627701 38.76404020084381 1 0 -1
4287 1 2.287005091417697 19.67705781148653 30.967065111534133 0 0 0
3386 2 1.5952842822020652 10.846536522337242 39.983677546194954 0 0 0
3388 1 2.691576954594399 11.096895728755346 39.91259918716881 0 0 0
2357 3 2.2477976758923397 10.4911004051895 35.49101643517923 0 0 0
4286 2 2.094612699950075 18.868721151626307 31.66985229674182 0 0 0
4288 1 1.9893219393965924 19.382434514495962 32.638824348693085 0 0 0
4285 1 1.1424294366561463 18.38444828049634 31.470965672322585 0 0 0
494 3 8.191310663520671 10.945835003954645 38.8663969948873 1 0 -1
4165 1 7.9207427018291545 14.185898003616808 36.640379208029145 0 0 -1
4164 1 8.972958858557103 15.273396035939092 37.72590666467385 0 0 -1
495 1 8.471876869324593 10.868587797331882 39.83639350519796 1 0 -1
4167 1 8.038188574557566 12.9373928742107 38.73231316050097 0 0 -1
141 1 6.808551759353603 10.421817253679606 33.62073047131417 0 0 0
4374 1 5.191140948696177 18.28750576432099 39.34238108363792 1 0 -1
4372 1 6.483185494216739 19.777798486755515 39.73063516386889 1 0 -1
3387 1 1.05901204377885 11.621121507701075 39.4667302048919 1 0 0
2353 1 3.2623781795256677 11.6101603508655 33.17120474456776 0 0 0
2354 2 3.644080922822552 10.818070889632589 35.280929188614145 0 0 0
2351 2 3.749629304681085 11.81506845054546 34.11023195972006 0 0 0
2352 1 3.2554256976464933 12.606412590011978 34.65967593955462 0 0 0
2350 1 4.7040576870802235 12.342296243434662 33.89671984995088 0 0 0
5016 1 5.474384409467148 11.21244820487729 31.672110566855107 0 0 0
2356 1 4.1723378205093455 11.285378810488575 36.14788194859758 0 0 0
2304 1 6.4771569468912205 16.818529632681916 31.769307043412795 0 0 0
1743 1 5.296955058862008 17.87248024956393 34.62990827407892 0 0 0
4166 3 8.052988249483363 13.950550922208333 38.740666580383575 0 0 -1
4163 2 8.620879330193747 14.290692406634362 37.45342808648861 0 0 -1
1745 3 6.796748508562273 17.05907758270163 33.45893856086147 0 0 0
3835 1 2.6509740684837038 13.214679241495796 37.75584308564039 1 0 0
3837 1 3.1754599801187795 14.865114171957416 37.19831572949549 1 0 0
3838 1 2.38364489550672 14.666158372470974 38.748264279021036 1 0 0
3836 2 3.0964437093792894 14.17337792204773 38.03859467116229 1 0 0
3839 2 4.4059629814740084 13.794974851921996 38.64413305181067 1 0 0
3840 1 4.2951345670624255 13.397001294757569 39.659717562958754 1 0 0
3841 1 4.959811536479994 13.056915731830747 38.028245573355036 1 0 0
3842 3 5.152575524398054 14.941709992328057 38.710558912303036 1 0 0
3843 1 6.142924587288982 14.76432068882665 38.735565047649224 1 0 0
2052 1 9.46931886184089 13.955902851487691 40.13209517937031 0 0 0
1742 2 5.953880686515418 17.03498961516246 34.60922677339683 0 0 0
1739 2 5.10784910126196 15.746272118748351 34.58246549009527 0 0 0
1746 1 7.745845480226467 17.03597193467634 33.750934243938325 0 0 0
3203 3 9.43894836766073 16.296401614232146 34.16179595110237 0 0 0
4373 3 5.746582122531056 18.319824847860126 38.58478460220345 1 0 -1
4370 2 6.840905462594099 19.085569247201335 38.91510679033349 1 0 -1
4371 1 7.6608440107111875 18.519979030292866 39.41737204965119 1 0 -1
3201 1 8.177432399669904 14.886883223422625 33.53281180151843 0 0 0
3200 2 9.227354684060133 14.997183010787603 33.66518585996935 0 0 0
4366 1 7.789522809593178 19.201378939545343 36.965575953020426 1 0 -1
4160 2 9.789200825063826 13.360928418597823 37.07065674282032 0 0 -1
1744 1 6.616648981792458 17.152088112676132 35.479317338206734 0 0 0
4162 1 9.741070227917438 12.47339812578118 37.61136049088929 0 0 -1
1741 1 5.670243583567283 15.096019338457786 33.941016976231104 0 0 0
4367 2 7.359573090363093 19.83207743669731 37.70329836461212 1 0 -1
1740 1 4.837202705168812 15.308681784499564 35.491612886377666 0 0 0
2185 1 1.7040436220040143 18.994813117857056 35.169862611868524 1 0 0
2183 2 2.5884866991894895 18.56145448437164 35.62739593860939 1 0 0
2184 1 3.0082106087428544 17.647228426567267 35.06882605270336 1 0 0
2182 1 1.639502283167252 17.071845119426964 36.802419055401565 1 0 0
2180 2 2.170216192545294 17.95682619870136 37.044510179709214 1 0 0
1912 1 0.8867097956610189 15.825241503661081 34.420726104451354 1 0 0
1738 1 4.166446192721284 15.92450195292822 34.03241976941266 0 0 0
3199 1 9.055176918505968 15.168239055631876 31.51378434093284 0 0 0
4161 1 9.63352548134277 13.188565140911955 35.97743175223661 0 0 -1
3197 2 9.816741810247967 14.774231496587474 32.22836898015488 0 0 0
2179 1 1.581247737831418 18.734325997394958 37.55287700617836 1 0 0
2181 1 2.970408792361686 17.703914998060384 37.75444082914378 1 0 0
3202 1 9.613047077621227 14.354226217202088 34.45867004919255 0 0 0
3196 1 10.026052009397754 13.775966809433305 31.890136683089434 0 0 0
1909 1 0.1940250979094219 14.375096451020598 35.326172678117466 0 0 0
2186 3 3.561174289123258 19.5756212250851 35.67645050364531 1 0 0
2187 1 4.276430044814387 19.15530275844128 36.19973747418169 1 0 0
5473 1 15.030928830569662 16.22277733814281 31.128999763347373 0 0 0
3608 3 10.80289173746526 10.37039348624261 33.746010404905626 0 0 0
3508 1 13.080705347417098 10.536186309828405 37.041733030074624 0 0 0
2049 1 11.23543901809795 15.073811536591965 40.2683834129911 0 0 0
4159 1 10.774842381499663 13.813299115725385 37.18321331137805 0 0 -1
3204 1 10.360866218089011 16.57108511336867 33.92980186428388 0 0 0
1932 1 12.732983688061967 16.77178310086335 39.54029360669329 0 0 0
5483 2 17.786145772919536 12.017511608358133 30.84585182442111 0 0 0
2048 2 11.334071774567155 13.999850974783346 40.51107572621032 0 0 0
1933 1 12.60169963016729 16.98064068720941 37.90619132433865 0 0 0
3406 1 17.265079087119506 18.67058584029001 39.28881426143788 0 0 0
3405 1 17.41331225307708 17.04147882921796 40.111488823601505 0 0 0
5487 1 19.343565455915286 13.414687067096182 31.33764180961242 0 0 0
2050 1 11.762392628997269 13.54826944460794 39.581956675668685 0 0 0
1930 1 12.837546820495875 19.647744312655433 38.71969348105436 0 0 0
1929 1 11.264223818792113 18.765675415069385 39.13238109281764 0 0 0
5482 1 17.07767623118492 12.527316886364606 31.591426261904708 0 0 0
5484 1 18.215581760787995 11.2245119025841 31.43818660097076 0 0 0
1935 1 14.668764456087754 17.316687149126462 39.57250398428915 0 0 0
1928 2 12.327776162825522 18.78622349234131 39.26544072304522 0 0 0
1927 1 12.582211851288351 18.94721473396857 40.35666927862628 0 0 0
4318 1 19.87567472875849 10.558607957222879 35.602713306216685 0 0 0
1934 3 14.360871043442318 17.56973698032493 38.70667915897468 0 0 0
1931 2 12.978286212656293 17.499779686939572 38.82210343494927 0 0 0
4212 1 15.15446073388788 19.048593621441174 37.791145388695355 0 0 -1
665 3 12.223225975818249 16.82366152087241 33.882483219159774 0 0 0
663 1 12.037487893995586 15.669959601049094 35.53903159131228 0 0 0
664 1 12.232457409514845 17.421366532282782 35.817776108198615 0 0 0
5880 1 13.077546922887683 14.490256580058393 31.945284676227143 0 0 0
5878 1 12.485632545660925 12.771480649607051 31.80946461749459 0 0 0
660 1 14.439956729106175 17.380560404637603 35.030834914397445 0 0 0
659 2 14.032225022810112 16.41409434824667 35.311971194262235 0 0 0
661 1 14.360305059996492 15.74385340724362 34.47139073006805 0 0 0
3198 1 10.759628294903445 15.375243977350744 32.17436541238045 0 0 0
666 1 12.535791515120376 17.78137887227445 33.784338388506136 0 0 0
641 2 17.714872705521998 13.582864513880244 40.5362962691304 0 0 0
643 1 18.58186492671251 14.048146967797011 40.08057779675026 0 0 0
640 1 18.04664746296215 12.516952001525135 40.73920394164409 0 0 0
658 1 14.398651150127229 16.022394598955554 36.26771407527531 0 0 0
662 2 12.555383743899766 16.57068495304681 35.23104388126573 0 0 0
647 3 15.893725482543777 14.874513800994606 39.56919746972618 0 0 0
644 2 16.52047254946167 13.562823466704279 39.65046466437496 0 0 0
3604 1 10.307327763232445 11.123096672480825 31.311519885880962 0 0 0
645 1 16.82260892522945 13.193921700596347 38.6660479197874 0 0 0
646 1 15.723905927419654 12.921081511212886 39.976466986409854 0 0 0
3503 2 15.07939303002959 10.710732850538022 36.421298939960145 0 0 0
3502 1 14.840401289494013 11.71598357537776 36.917937215929285 0 0 0
3504 1 15.70757651604777 10.886123471548283 35.498633980757276 0 0 0
3506 2 13.679309839869942 10.235902673867763 36.18112215067252 0 0 0
3509 3 13.234271756085779 10.899237703376505 35.072060376725744 0 0 0
648 1 16.35476123209891 15.432856719425263 38.841367453624734 0 0 0
3510 1 12.255646973597935 10.813843518714641 34.95957058257209 0 0 0
5881 1 12.810580704178644 13.508223620705495 33.41948682275716 0 0 0
5885 3 14.862984557184827 11.765311180912054 32.984283218512545 0 0 0
5884 1 15.266157133978306 13.77979725778181 32.761646541499076 0 0 0
5882 2 14.591967707676613 12.994983377646099 32.330748961029286 0 0 0
5883 1 14.842889442756283 12.859752556939862 31.240459882986187 0 0 0
5886 1 14.308923927959686 11.609287797570097 33.79149914542734 0 0 0
5879 2 13.15274340868687 13.460270990661558 32.41613725871228 0 0 0
1491 1 18.52112542460073 14.249586115686673 33.74695141803958 0 0 -1
1488 1 18.680743479776055 13.323197551236316 36.26664846750636 0 0 0
1492 1 16.772135323972478 14.356150688497197 34.07338830658393 0 0 -1
1489 1 17.833356140560095 12.1800315868577 35.21047993413148 0 0 0
1487 2 17.88121938387812 13.271125507658383 35.54624663513376 0 0 0
1490 2 17.80663715205531 14.386975153588176 34.540875750710846 0 0 -1
1493 3 18.02896611363788 15.661983847837345 35.19929725609925 0 0 -1
3411 1 17.38405486487226 16.16182941213404 36.750466632198204 0 0 0
3410 3 17.164562180727728 16.406181845453204 37.70836675892255 0 0 0
3407 2 18.245378903306968 17.119539762226577 38.21012008926986 0 0 0
1494 1 18.933062826364463 15.977191251326595 35.19069049474321 0 0 -1
3408 1 18.593495773558818 17.84438913874922 37.43672155235601 0 0 0
3409 1 19.071275852474724 16.358233308932917 38.31472165817759 0 0 0
3404 2 17.907699023272663 17.823613803023687 39.45803978501196 0 0 0
1486 1 17.03592450560568 13.338381360956898 36.242263286547825 0 0 0
3403 1 18.71676754021354 18.268855387483512 40.0396993100855 0 0 0
4209 1 16.727318470632373 19.443653599400758 36.12367949911902 0 0 -1
4211 3 15.256319203160993 19.95015275672183 37.48976892951197 0 0 -1
4210 1 17.308344511807192 19.93241602851318 37.725518092078396 0 0 -1
6159 1 19.738006921646026 17.114155356149006 33.35913599381904 0 0 -1
5732 3 12.739170469026261 19.480465024271105 33.86740078629057 0 0 0
4208 2 16.569400753104972 20.17847699558808 36.9205281879087 0 0 -1
6163 1 20.36814470306182 18.67641776913593 35.220869942614556 0 0 0
6043 1 20.290499094217548 11.866623195223116 37.96346987180095 0 0 -1
5730 1 13.444737058314418 19.19694871705514 32.070995946471065 0 0 0
5731 1 14.85379835211218 19.228265337607304 33.125365422121995 0 0 0
5729 2 13.845589105981709 19.731681245408154 32.97699952441847 0 0 0
5733 1 12.845052788405011 19.9518306117927 34.70090036860512 0 0 0
508 1 20.082146937803966 19.62210725908018 37.6178748910873 0 0 -1
1198 1 21.50595463637181 11.171637541713624 30.639610128097065 0 0 0
1200 1 22.56779043583771 11.920838820945495 31.806622558566403 0 0 0
4135 1 21.55787255044497 16.75813465794677 30.62742521871839 0 0 0
5578 1 27.334025108150392 17.0395227604221 30.981267289230047 0 0 0
4669 1 24.812597790689626 13.125805065918005 32.36723056531787 0 0 0
4668 1 23.375341136087425 13.859092808343402 31.709164562957803 0 0 0
4667 2 24.530827462737697 13.926707239576993 31.754503116117682 0 0 0
1199 2 21.796500001618472 11.14091932197503 31.700489771536173 0 0 0
1201 1 20.939574583490195 11.385691398700471 32.24361382883344 0 0 0
5380 1 27.146421877880528 10.21174141419516 31.79308128001781 0 0 0
5035 1 26.27633909912783 11.44280932145047 37.53433360616452 0 0 0
6046 1 22.045873526014468 11.13705369956928 39.41872205028506 0 0 -1
6042 1 20.631866592226668 13.025929976739022 39.18363818983888 0 0 -1
6160 1 21.489394824104465 17.030314362365225 32.852507152303595 0 0 -1
6157 1 20.474980166912882 18.518291652559878 32.84509598371073 0 0 -1
6158 2 20.703946722348988 17.61497806675651 33.411847278775205 0 0 -1
6048 1 22.281618238612072 10.65384486428538 37.0263616673575 0 0 -1
5033 2 26.10131913180651 11.353158280521075 38.608342775383996 0 0 0
5034 1 25.250067861923167 11.950896216424248 38.87050128675608 0 0 0
5032 1 26.974377893175568 11.754307447464548 39.19537634230659 0 0 0
3160 1 27.818379407632786 11.396055107864061 35.20398051039665 0 0 0
2335 1 25.226160284909394 13.58133843938154 36.305870572124846 0 0 0
2337 1 23.004322709675677 14.3171456525721 36.28531728859341 0 0 0
512 3 22.410726173569895 19.661911412984097 38.9355752790312 0 0 -1
4002 1 22.60016108891201 15.372299346545404 38.93415992572786 0 0 -1
5580 1 27.053061130442096 19.342563480044912 30.8460578173491 0 0 0
2338 1 23.893033584166357 15.850954963036186 36.330313741289025 0 0 0
2333 2 24.933569900019915 14.05434709373137 35.43675488670187 0 0 0
6165 1 21.187482881139893 16.863950561322127 36.520831437613474 0 0 0
2336 2 23.70709005751655 14.950017832738336 35.77777040042928 0 0 0
2340 1 22.146722160439577 15.562825751852918 34.626750912295236 0 0 0
6164 3 20.770939882651287 16.72725461253428 35.63371946116182 0 0 0
6199 1 25.72402521579353 18.155578343910854 33.235505771289425 0 0 0
2332 1 25.73007769712971 14.473707260774331 34.83213484571083 0 0 0
2334 1 24.533080071748724 13.27561278114237 34.84656352804004 0 0 0
6200 3 26.709188708591505 19.865247700132297 32.59376357047275 0 0 0
6197 2 25.567469706812 19.245618609937615 33.18538503200318 0 0 0
6040 1 21.156581021128797 13.236440446903542 37.41736943329617 0 0 -1
6047 3 22.946022148156672 11.133812376793825 37.56992005132398 0 0 -1
6041 2 21.047482871623995 12.540501321828543 38.26045379776132 0 0 -1
3999 1 23.951599509716395 17.153078623131606 39.97514058959423 0 0 -1
4001 2 22.152440231290246 16.34188413280207 39.25174813011785 0 0 -1
4005 1 21.88404324942707 18.070127845062004 38.44408508313717 0 0 -1
3998 2 22.9770290587246 16.9215085332797 40.39666895329425 0 0 -1
4004 3 21.832577833890113 17.150871973630863 38.13818462826407 0 0 -1
5769 1 29.422882902009103 17.478004162706174 40.381458357833694 0 0 -1
6162 1 22.071199712108573 18.260410239761985 35.12510031762192 0 0 0
6045 1 23.06164957067125 12.489115176502938 39.001220458589295 0 0 -1
6044 2 22.318884127839645 11.792109074826614 38.645087843612146 0 0 -1
6161 2 21.023994394779915 17.865201930218635 34.901956006706214 0 0 0
2339 3 23.067024601710862 15.254210145504706 34.51809534176721 0 0 0
4671 1 24.38855575401137 15.513444225886527 32.97344124408309 0 0 0
4003 1 21.22920870568335 15.913616031488967 39.68409309496893 0 0 -1
4670 3 24.923350511612995 15.18323140911069 32.23347465669209 0 0 0
3163 1 29.004838584301602 12.567591356693134 34.67351611517953 0 0 0
3162 1 27.71297822788413 13.061096920329172 35.72371664020552 0 0 0
3166 1 26.091089746019957 12.428553204415975 34.08913299881337 0 0 0
6201 1 27.56896018507487 19.42392983960873 32.96982195044163 0 0 0
5498 3 29.0073450463981 18.57098760088913 33.740881453355854 0 0 0
3165 1 27.192574911624032 12.171747733666038 32.87469111510259 0 0 0
5499 1 28.974414830317993 17.622306610824918 33.78522979924406 0 0 0
2582 3 29.160781796604887 15.87637753377458 33.95444495624326 0 0 0
3161 2 27.964870951257247 12.398023153205445 34.905332764326225 0 0 0
2583 1 28.365553505670817 15.28896135566888 33.97851827640659 0 0 0
5495 2 29.35598980574536 19.052074680867086 35.078069226377494 0 0 0
3168 1 26.585075868632224 14.522925969823296 32.90987416298518 0 0 0
3167 3 27.256630974198334 14.071113367646742 33.43919846801188 0 0 0
3164 2 27.023836202978014 12.733110105243442 33.737913952717115 0 0 0
462 1 26.790752517118303 15.833342037900346 37.48303570450277 0 0 0
464 2 28.91585262226896 15.790596394143593 38.08082997637061 0 0 0
466 1 29.23204523250435 15.681724396577817 37.037839883536556 0 0 0
463 1 27.535087695310533 17.43298947141622 37.65640052235267 0 0 0
461 2 27.48106156178565 16.369141676433028 38.09364831623889 0 0 0
460 1 26.99429034666127 16.47287066761252 39.03992030665515 0 0 0
465 1 28.990532935478132 14.794223599568479 38.52628107920062 0 0 0
467 3 29.82148902567529 16.619327566134547 38.7691323405373 0 0 0
5496 1 30.432522999065952 18.6533718524907 35.15991345475927 0 0 0
6198 1 25.283139513469102 19.535801036324028 34.2254068846896 0 0 0
513 1 21.97212845484797 20.058521243372923 39.71302551050732 0 0 -1
6196 1 24.58724735065817 18.98723017377075 31.21298088089313 0 0 0
6194 2 24.39687142293858 19.472741867004306 32.19637554435403 0 0 0
2581 1 30.470529805550957 14.343841756043066 33.83533455718117 0 0 0
510 1 22.576113900152663 20.20676372431406 36.95705048725656 0 0 -1
6195 1 23.49264056260664 19.187220544230716 32.667094332238406 0 0 0
2580 1 29.781166932080332 14.69664282523419 32.32884842905255 0 0 0
2579 2 30.223894662256868 15.168045741824452 33.24193381627672 0 0 0
5497 1 28.652276640597993 18.67634351838283 35.89995946696897 0 0 0
4362 1 26.123623117089792 19.546546494291274 40.159412128012086 0 0 0
2488 1 39.98435307309075 16.417605178518848 40.47081309936086 -1 0 -1
4235 2 31.896151155847434 13.13497793800134 40.69007468949245 0 0 -1
5316 1 36.63703065579648 14.670812572232364 40.730457848846854 0 0 0
4237 1 32.19154118909733 13.411707713080638 39.670662055254844 0 0 -1
1546 1 34.82706206056461 12.900219600538898 31.049021093948564 0 0 0
1544 2 33.89350164957594 13.47344791515888 31.251645559541977 0 0 0
3246 1 35.622102257029 17.5477868671279 31.065739287018268 0 0 0
1961 3 39.75559854530559 10.288878993323616 36.66736142307035 0 0 0
1962 1 39.20277409387011 11.044395298851327 36.972729453331866 0 0 0
2842 1 36.52689894599571 10.999138259545013 35.28741360297544 -1 0 0
2840 2 35.683380009153964 11.470260693294177 34.67984470396073 0 0 0
2841 1 35.923071227927004 12.550753935474924 34.78619339979387 0 0 0
3084 1 36.88050167044983 11.408144971297379 38.97754396234602 0 0 -1
1954 1 40.24612078232456 11.947942695248582 34.51432638887378 0 0 0
2485 1 40.553379147575576 17.622778433991044 39.43249523963274 -1 0 -1
2486 2 39.692976315115374 17.299444646750242 39.959451496497 -1 0 -1
468 1 30.655362697524208 16.282008179730568 38.43451277339795 0 0 0
319 1 30.700890809352174 13.27952988850881 37.18780525264559 0 0 -1
1545 1 34.0753880605768 14.225524331577887 32.028970547646004 0 0 0
2836 1 34.216764440173 11.05554361095853 36.37864254424805 0 0 0
2844 1 35.345564847980114 10.38168190438355 33.08842572316849 0 0 0
318 1 30.929215727065795 14.708026354135473 36.2439703855714 0 0 -1
3085 1 37.36380169144555 13.039354765689275 39.413740531344416 0 0 -1
4834 1 33.41256399548546 16.66053811586819 39.93311808982444 0 0 0
1543 1 32.76480431136686 11.633379405214301 31.114667788974483 0 0 0
1541 2 32.744419358935446 12.54475715480688 31.770139864024028 0 0 0
3247 1 34.46747928343365 16.297157618406178 31.045945236447018 0 0 0
3229 1 36.54442968364898 13.809665511854 30.903763791032176 0 0 0
1956 1 38.461946218834946 11.70108531032008 34.68239267708649 0 0 0
1957 1 39.28930891253936 10.830508329893393 33.39781414132764 0 0 0
1955 2 39.36753164525878 11.212484265532549 34.41919928798749 0 0 0
3081 1 39.36745260515308 10.606713158468542 39.42320277049079 0 0 -1
3080 2 38.80482644099409 11.405499049140712 39.94279399503063 0 0 -1
3079 1 39.51367546377175 12.223768654575684 40.18226969545564 0 0 -1
1540 1 31.78340471354899 13.043123661853086 31.635754965853362 0 0 0
2576 2 31.177699538664335 16.16328511223674 32.817272086747664 0 0 0
2577 1 30.811593463878275 16.920551207841076 32.112224945691366 0 0 0
2575 1 31.645331451238178 16.572313227987394 33.68378150791701 0 0 0
2487 1 38.907276961466174 17.09245052703055 39.20160231631962 -1 0 -1
1542 1 32.83801392168354 12.229836055610354 32.773315714633725 0 0 0
323 3 32.22203192894039 15.452279959948978 38.27968283098709 0 0 -1
324 1 32.81347031279562 16.310255474779154 38.07635543067188 0 0 0
1915 1 40.07275370502352 14.224256030675106 33.08532040434734 -1 0 0
317 2 31.449589540049427 13.810603934922403 36.61483084668878 0 0 -1
2490 1 38.97941439265576 19.374263940767705 40.47486745195849 -1 0 -1
3083 2 37.76956151724676 12.090120983665258 39.014553587811434 0 0 -1
1910 2 40.77269341678112 15.292677438421373 34.829859076712125 -1 0 0
1911 1 40.37558623558992 15.976456854989296 35.563485222357514 -1 0 0
1914 1 39.83029738718425 15.989865062810278 32.97413957942497 0 0 0
1913 2 39.77073417111062 15.16648806372899 33.61210504665843 -1 0 0
322 1 33.1006976358858 14.973747022634804 36.49076576307515 0 0 -1
3086 3 38.49081365098091 12.228092636721952 37.76846125129246 0 0 -1
320 2 32.62213099035214 14.46450552664088 37.3122545250081 0 0 -1
3228 1 38.3310995686044 13.986373462858868 30.825944831588572 0 0 0
3087 1 37.899078305161076 12.785355392696587 37.246177377133804 0 0 -1
316 1 31.84038406201776 13.188868485015055 35.86733355123713 0 0 -1
2578 1 32.027461442994706 15.722068518740468 32.31235269682895 0 0 0
321 1 33.41236116310004 13.681757533362623 37.611573039163666 0 0 -1
3227 2 37.52239238859365 13.29671876792714 31.031956842020197 0 0 0
2586 1 35.79908290143664 18.59161534664997 34.08551159536069 0 0 0
1009 1 40.24652490065451 18.110158634288876 35.717815583530275 0 0 0
2584 1 34.659622058215675 18.378852251788885 32.80555095144208 0 0 0
2587 1 34.95098369777354 20.014510645086496 33.42952159180786 0 0 0
2590 1 33.65158043797442 17.673507517722346 34.85817170375904 0 0 0
2585 2 34.83894233424166 18.96653687250556 33.67778686062157 0 0 0
2588 2 33.74192739958875 18.692341168850753 34.645510141292235 0 0 0
2589 1 32.80885157819025 18.98365909080156 34.14225906184194 0 0 0
2839 1 33.38486677687174 11.496716881872743 34.86712274591155 0 0 0
2837 2 34.28197237718718 11.022051897531412 35.270461730757596 0 0 0
4815 1 37.72698190538537 14.482367802837704 35.6395957076803 -1 0 0
2843 3 35.71986004766962 11.260332025520993 33.29921814361373 0 0 0
3231 1 36.97184518581705 12.21696371721756 32.601834185398765 0 0 0
1916 3 38.450846175731186 15.03165992204536 34.06317811534212 -1 0 0
2592 1 33.385517015114004 20.15092612052163 36.002150085266265 0 0 0
3230 3 37.714250873756235 12.758326224196125 32.35095425897105 0 0 0
4809 1 37.33015115756833 16.793626706278665 36.174366814267955 -1 0 0
1917 1 38.10849822637656 14.276881201702334 33.57374685844295 -1 0 0
4811 2 36.14613227952634 15.059569655797844 36.63998778555019 -1 0 0
4808 2 36.39755255397062 16.40381604626004 36.01622740724143 -1 0 0
4810 1 35.69716182618262 17.03898576555775 36.58890480999385 -1 0 0
4812 1 36.032348242437656 15.142582099542372 37.774311858093306 -1 0 0
4813 1 35.245889691168536 14.582673044437717 36.29669229565346 -1 0 0
4814 3 37.19717263453336 14.150671595469701 36.34425364107865 -1 0 0
4807 1 36.09748516461673 16.38123656165214 34.93060708483501 -1 0 0
4839 1 33.64202165466282 19.22385665335112 39.28948746609233 0 0 0
4842 1 33.64845737979938 18.260136137557144 37.225314743581386 0 0 0
2591 3 33.96592690728321 19.36440236711361 35.92959588945919 0 0 0
4841 3 33.70888876866031 17.644994149215222 37.94682543845523 0 0 0
4838 2 34.24284435464202 18.330003113996302 39.01997113176958 0 0 0
4837 1 35.110385144790534 16.586521205805695 39.95409537646238 0 0 0
4835 2 34.30775590010987 17.29859742627048 40.13204055337926 0 0 0
4840 1 35.182872938486184 18.809635847680347 38.74904496020353 0 0 0
1010 2 39.70709761935779 19.061347772101882 35.78860078864998 0 0 0
1011 1 39.806805027974164 19.53537773590604 34.80906164315905 0 0 0
1012 1 38.70505387008056 18.74005933669285 35.829762923157205 0 0 0
1014 1 40.175419738932085 19.333882451958896 37.86944749137827 0 0 0
1013 2 40.08376488295246 19.954115995711096 36.979280565349505 0 0 0
4609 1 9.560651983534125 21.370775519680006 40.64792179888111 0 0 -1
5563 1 8.83665804416391 25.918615857553995 40.35696438162771 0 0 -1
5628 1 1.4452671541324775 22.305208672919548 40.54467335431246 0 0 0
5076 1 9.2920143372953 24.295544153504657 30.88777757221607 0 0 0
5169 1 1.6410699114408989 29.498407337533276 31.082071416190022 1 0 -1
5167 1 3.3741822044358454 29.722098416929448 31.401070424643464 1 0 -1
5173 1 2.5143170240287698 27.36890469281434 31.038271705544 1 0 -1
4369 1 6.5475982137670705 20.455410915431017 37.22737968550362 1 0 -1
1015 1 0.2224199479610648 20.47191118334686 36.93376736607928 1 0 0
4611 1 7.8925797133996936 21.074766822997027 40.07806670429387 0 0 -1
1372 1 0.6652862187227112 26.49664767601662 40.02390473440864 0 0 -1
5629 1 0.4067185970809165 20.956218230070192 40.56974936869754 0 0 0
5075 3 9.398161418489885 25.211408327040097 31.198904830166722 0 0 0
5801 2 1.3906663661094996 22.741783746451357 30.806788163154756 1 0 0
5803 1 0.44183562368995855 23.277494396819026 31.199336524623675 1 0 0
5802 1 1.3158608504831033 21.637801712892717 31.031537092116714 1 0 0
4368 1 8.145284810735125 20.51843153321478 37.93368804452826 1 0 -1
5799 1 2.702916327317042 24.35335721939293 31.340604198950775 1 0 0
2641 1 6.7916761048976495 29.819692527769888 31.63580231197084 0 0 -1
5626 1 1.6604688632115954 21.124220563485572 39.33257724727296 0 0 0
5627 2 1.4336192645670587 21.269183188293418 40.38328686498629 0 0 0
1369 1 0.4924984526504575 24.875109350404635 39.43615064715573 0 0 -1
5800 1 3.527907110430135 22.73674520823674 31.20660426438226 1 0 0
3657 1 1.5116891151524918 23.315920884017007 38.29457133483122 0 0 0
5798 2 2.6202550999612026 23.286640463605742 31.466232131193923 1 0 0
2920 1 5.248421297081214 26.85810464203856 33.59338730042375 0 0 0
2917 1 5.682839751179797 27.82518640293601 32.12882794649083 0 0 0
5797 1 2.4911983303464713 23.23182747268919 32.56552359150906 1 0 0
3144 1 8.975169252881592 22.638145122064497 33.121194188976766 1 0 0
3143 2 10.079343248170417 22.478691914376483 32.795060703267815 1 0 0
2925 1 7.874319789917287 25.31948660293037 32.0540493101412 0 0 0
759 1 7.234540344616145 28.2127514636733 39.351914279927556 0 0 0
760 1 6.835230578563088 28.389568396658948 37.6169568493622 0 0 0
758 2 6.745259837355858 27.747400874484022 38.47458641775691 0 0 0
3661 1 1.5594122920449676 23.75583609272593 35.23546815178268 0 0 0
3660 1 1.2515368347375742 25.05355180561969 36.38794380552977 0 0 0
3658 1 2.964995868816341 23.693515670197662 37.40303375479766 0 0 0
3655 1 2.0694158246103203 22.16824469108208 37.01711066968974 0 0 0
3656 2 1.9621805976976163 23.25334020017757 37.30536240421888 0 0 0
1453 1 4.778185050577187 23.573706955040528 38.569832722456475 0 0 -1
1450 1 5.676355034537469 24.874928622585795 39.518975455137934 0 0 -1
1456 1 6.80301296716671 22.771425169005138 37.68125280129578 0 0 -1
1451 2 5.6990468646267205 23.84219444345957 39.063789628988296 0 0 -1
3450 1 6.4263085499722346 21.730807844831144 32.887825968523906 0 0 0
2922 1 8.236779969196764 27.209106905506783 32.83713130570192 0 0 0
2923 1 7.441218795463265 26.617843227203814 34.33968340919841 0 0 0
3659 2 1.2181842821584294 23.9948394551213 36.22795482613083 0 0 0
3448 1 4.6545601200643745 21.646837362413404 32.812730873281964 0 0 -1
3451 1 5.383074848518636 23.07684531516317 32.15953211601912 0 0 0
3624 1 2.2409017089583814 28.961814077151935 37.039419479299006 0 0 0
3449 2 5.484661122563768 22.323327701006615 32.94915038945844 0 0 0
3453 1 4.411837887230962 23.56893237905439 34.3932562393005 0 0 0
3623 2 2.202018039347307 28.427499801662947 36.078143521306274 0 0 0
1455 1 7.839395583856561 23.865337804946257 38.67252775414661 0 0 -1
3625 1 1.167782441449832 28.56860995260388 35.7356467855376 0 0 0
3454 1 5.04459266852182 22.172112215369925 35.16147131101359 0 0 0
3627 1 3.4163001299322873 27.06808692052446 36.59565598285492 0 0 0
3626 3 2.503342164884252 27.078299638554874 36.25892526174388 0 0 0
2921 2 7.308058776823232 26.809775128675682 33.283840390764816 0 0 0
3452 2 5.291753832350216 22.91756306106944 34.370915930258825 0 0 0
3455 3 6.500532826059114 23.6847819453038 34.76443387561754 0 0 0
1458 1 6.521415659838967 24.3523721044546 36.313516734166775 0 0 -1
1454 2 6.880354176129389 23.77957570742734 38.132828783677326 0 0 -1
3456 1 6.622899859774567 24.31416425596159 34.080731287089556 0 0 0
1457 3 6.80726033018496 24.82427366821476 37.14411370524559 0 0 -1
2919 1 6.038393380071414 28.417308518721267 33.77668889907479 0 0 0
2918 2 5.96608765333528 27.563105526812613 33.16335769578613 0 0 0
765 1 5.458435315783332 25.86000456718235 37.0810560521341 0 0 0
2924 3 7.077771905569899 25.548316305110983 32.66558352325584 0 0 0
764 3 4.844044135736759 26.538814921777078 37.561657122985096 0 0 0
761 2 5.383961526488364 27.337222534812703 38.650265428421186 0 0 0
763 1 4.805025583234866 28.279389542863665 38.72805437443106 0 0 0
1452 1 5.868880773202125 23.154374726470238 39.8628807014441 0 0 0
762 1 5.314562765842015 26.884114578597835 39.63168176760288 0 0 0
757 1 7.310729287756884 26.905755579793407 38.31081381845025 0 0 0
1600 1 0.707750286693193 26.5419904297646 31.91696639041354 0 0 0
3619 1 3.468419606060686 28.496895688432275 34.37659953162355 0 0 0
3620 2 3.2313957421378836 29.140530613870727 35.21026709670854 0 0 0
3621 1 4.248703209105828 29.365715619932594 35.595277320417416 0 0 0
3622 1 2.814394606350857 30.053905990841802 34.79798298507753 0 0 0
3903 1 9.634120465652577 28.335550660250977 32.96974821687771 0 0 -1
6034 1 10.028222057398192 28.43701976050036 38.737136284255016 0 0 0
2719 1 8.062400885254121 30.346707342592076 35.72570835397712 1 0 -1
3148 1 9.506855325755986 20.752532342554247 31.51899313439983 1 0 0
3146 2 9.944131892984508 21.769263726434733 31.4270458869166 1 0 0
6031 1 9.340594805717075 27.650439909336978 37.277294956769 0 0 0
6033 1 10.183757174727758 29.099659848821577 37.1128841114556 0 0 0
6148 1 1.7276890708980035 29.373310774944834 39.839676366977436 1 0 -1
5566 1 10.501762549692364 26.77024798805059 40.48858426276374 0 0 0
4631 2 16.352276001413408 21.638748233712686 40.472960519327394 0 0 0
4633 1 17.449372136996562 21.33926367214965 40.55218617388659 0 0 -1
4629 1 15.171664509914175 23.290479656459258 40.70873357716932 0 0 -1
4630 1 16.852734571377486 23.707033270063473 40.60828914707943 0 0 0
1275 1 19.358143119601923 24.87676208004402 40.13640583546531 0 0 0
1264 1 12.08897334514423 23.707540414530605 30.83291958986705 0 0 0
1263 1 13.775192456934288 23.10835979535675 30.827147595961968 0 0 0
3902 2 10.60451900568675 28.74738797805555 33.297337490049614 0 0 -1
3147 1 10.975525930121345 21.706570625643327 30.985114651279844 1 0 0
3142 1 10.483171019332834 21.731655705768098 33.50187277140998 1 0 0
3904 1 11.300563964409381 28.01732032182249 32.95331264955809 0 0 -1
6032 2 10.204570071744822 28.145229800818942 37.68519773857689 0 0 0
3899 2 10.733779834215166 30.046742448844924 32.52132240043634 0 0 -1
3901 1 10.60220529255587 29.836157523120075 31.41487100177089 0 0 -1
4632 1 16.25453295357389 21.595552946709883 39.366304505868726 0 0 0
1186 1 18.535684117123484 21.9181956592543 33.31032679002899 0 -1 0
1180 1 17.308756914114078 21.970821055820355 31.169931900271706 0 -1 0
1185 1 17.388152493243297 23.34900483413802 33.47465047057083 0 -1 0
1184 2 18.181734286937544 22.920920785327805 32.87853910381733 0 -1 0
1181 2 17.84370532545344 22.872780462163146 31.38196777129593 0 -1 0
3145 1 10.68656371300447 23.39074959025311 33.018142275777514 1 0 0
1056 1 11.00430666138992 23.407776196479443 36.352724374543385 0 0 0
6037 1 11.472806383722622 26.530263038848133 38.043126893314074 0 0 0
1059 1 13.058351962139838 22.346406436054856 35.41748267696657 0 0 0
6036 1 12.340953537256366 28.018986292822802 37.88127386314916 0 0 0
6035 2 11.470506157736317 27.43810265499927 37.50349152232528 0 0 0
1183 1 17.159220468598395 23.677431158344113 31.070967655447138 0 -1 0
1055 2 11.165932883786962 22.37172337584461 36.50104975123406 0 0 0
1054 1 10.54160064834096 21.855949234944802 35.754451168074475 0 0 0
1182 1 18.749951053188884 22.965687626052155 30.781988465387283 0 -1 0
4207 1 15.61919624390945 21.709350735688222 35.9884926009141 0 0 0
1762 1 15.289986827573895 28.12614302680015 31.81558443830727 0 -1 0
1057 1 10.8547773506125 22.0914959235249 37.54120067990267 0 0 0
1060 1 13.176991684394146 22.525293653303006 37.04702178062809 0 0 0
1058 2 12.670141612938979 21.89992940942814 36.30254201301504 0 0 0
3906 1 10.878193473419955 28.326117728540982 35.18743061770972 0 0 -1
1297 1 17.888981468686865 28.2718774973885 33.268685624264464 0 0 0
5725 1 13.00617428961449 21.691528370936357 32.538537065453845 0 0 0
4206 1 16.687559502612903 22.365975490470692 37.15794367243318 0 0 0
4205 2 16.61688340370684 21.58789759340328 36.32709202182786 0 0 0
4204 1 17.336871278803855 21.890141696275535 35.61348932211381 0 0 0
1760 2 15.442116923382507 28.041912834926524 30.698566708672885 0 -1 0
1299 1 19.44349390591646 28.838794354145865 33.499413139804304 0 0 0
1300 1 19.02983044221696 27.15152771284809 34.14956830901491 0 0 0
1298 2 18.91171155609842 27.90330331312524 33.2436260826616 0 0 0
5727 1 14.703727659527493 21.409836379784892 31.94287925847326 0 0 0
5728 1 14.421900676531726 21.718867650419906 33.543266859201914 0 0 0
5726 2 13.95666099382331 21.188170840339687 32.70488469645592 0 0 0
1302 1 18.845917549092167 28.150169967273744 31.135239044753746 0 0 0
1303 1 20.216068038622907 27.267418799981932 31.646227298240106 0 0 0
1301 2 19.175471294051952 27.43207843041452 31.876720777892253 0 0 0
1471 1 12.89077637563517 24.404598363053037 32.722155578042496 0 0 0
1470 1 13.775654016310277 23.818698457054506 34.02696869075611 0 0 0
1469 2 13.14500108999413 24.64296720459053 33.78132151729292 0 0 0
1468 1 12.337642402752232 24.555553645752166 34.4641410497816 0 0 0
1061 3 12.91808702131803 20.54254124716226 36.48531978428759 0 0 0
1062 1 13.832152233488367 20.407500877106052 36.85355871907644 0 0 0
1305 1 17.74672621943663 26.36136627081896 31.150870935077233 0 0 0
1474 1 13.445136404625398 26.800937651185354 33.50031542961803 0 0 -1
1304 3 18.64681843672088 26.14297553501625 31.581650125763737 0 0 0
1473 1 14.88202673671938 25.874297391619663 33.34776201262511 0 0 -1
4045 1 19.319083892368088 30.003140066675638 36.54450902316216 0 0 -1
4449 1 16.647572918389496 26.249642654405562 37.11186620872635 0 0 -1
4453 1 15.3810574362272 28.47504356556355 38.82560874357416 0 0 -1
3905 3 10.59269565200415 29.04335123765362 34.64343630824192 0 0 -1
1472 2 13.94983353883781 25.94008927466682 33.92721715289473 0 0 -1
4447 1 17.301919871659656 27.718880704480117 37.6585235683943 0 0 -1
4448 2 16.58671880796378 26.92103739579733 37.95775749706313 0 0 -1
4450 1 17.054705252177108 26.38975208039932 38.81595479320898 0 0 -1
4454 3 14.664316663755473 28.057737052816275 36.9578306722923 0 0 -1
1475 3 14.284726681096558 26.191064665695873 35.297356136195596 0 0 -1
1476 1 14.850749534228253 26.969625279902846 35.2810843002819 0 0 -1
4451 2 15.309665234742013 27.580883031557633 38.23114697433062 0 0 -1
4455 1 14.588860620430417 29.014730361983958 37.200640548939035 0 0 -1
4452 1 14.580167736336954 26.941748385789996 38.71670263233521 0 0 -1
6038 3 11.581943100910745 27.124313914476872 36.11106219858236 0 0 0
6039 1 12.535021556836272 27.070695524893324 35.91405390412166 0 0 0
4048 1 17.437732160438728 29.828399299326126 35.19851630794343 0 0 -1
1188 1 18.99054756445071 24.712186430668954 32.488617290045966 0 -1 0
1187 3 19.18310117878459 23.909023621549547 33.09148823668609 0 -1 0
3898 1 11.758633993763999 30.378568619805908 32.67908547270793 0 0 -1
4467 1 17.529560481908153 30.27072316461672 31.828950967957717 0 0 0
2715 1 13.979544875109468 30.04190917974009 39.28654962174043 0 0 -1
505 1 20.15570332896301 21.174507856420263 36.837196585881195 0 0 -1
507 1 20.032290264618556 21.17955984081067 38.4427961653561 0 0 -1
1276 1 18.84956398837527 23.23139677029756 39.75635380665885 0 0 0
1274 2 19.617999402839708 23.993570534227416 39.61468541846842 0 0 0
1273 1 19.583743225308474 23.610813452445644 37.430649494207614 0 0 0
1272 1 18.831329878845228 25.107328732614377 37.99163095434771 0 0 0
1271 2 19.659564504016103 24.470897831589056 38.170982407977085 0 0 0
4471 1 19.978450999410736 30.240096195319627 31.857730379260357 0 0 0
4044 1 19.89359034402378 30.216850875543386 34.865095047679645 0 0 -1
1857 1 19.871311737718926 30.438317764523457 40.57483859381668 0 0 -1
2061 1 11.49951179358928 30.438292174656386 35.365009987512366 0 0 -1
1277 3 20.827094636267113 23.478965555214696 40.09066803215768 0 0 0
3595 1 23.821420692704148 23.65067518329859 40.745545781128286 0 -1 0
3598 1 26.357463814467142 23.769022786130456 40.46584254017001 0 -1 0
160 1 29.595005592547974 24.458713496022455 40.51747876321311 0 0 0
158 2 29.61081233604032 25.53805307114325 40.51242108919526 0 0 0
5406 1 28.623982940376276 22.143744024223015 30.685776444391976 0 0 0
3792 1 24.428251567185093 24.351454091643024 31.52482781820386 0 -1 0
4395 1 25.8326407679021 27.560159874037083 30.86771151677747 0 0 0
509 2 22.03464448813878 20.57932889072722 37.85163199818349 0 0 -1
6193 1 24.277817813111405 20.534625489697834 32.041966235465935 0 0 0
5493 1 28.526565170594445 21.030993975071173 34.88501425953869 0 0 0
5492 2 29.454533306378913 20.532687727783667 35.15022506178495 0 0 0
5494 1 30.157000799471724 20.9684841652531 34.37781589145381 0 0 0
3222 1 21.18817835393502 21.817492740304743 40.57085056305045 0 0 0
159 1 29.728543528739564 25.81851754846975 39.50058415202339 0 0 0
6223 1 24.086623508976462 27.340161318923283 40.03320066740542 0 0 -1
3790 1 24.182301987968273 24.41223900929887 33.23434216412794 0 -1 0
4393 1 26.93365401035331 26.13248399823318 30.952262877041797 0 0 0
3796 1 22.28008662477175 22.93629307190519 31.50461466894642 0 -1 0
3793 1 24.331611284517734 22.8430047569149 32.3440962963256 0 -1 0
3791 2 23.961059830476128 23.86218668682352 32.32985673730505 0 -1 0
506 2 20.52316588840747 20.640838904876038 37.68388414642319 0 0 -1
5491 1 29.76818496047626 20.85586027678969 36.123612363268094 0 0 0
3795 1 21.962620614647143 24.661800836172734 31.65335408244852 0 -1 0
3798 1 20.857004803379862 23.563342227925308 33.25060591580991 0 -1 0
1984 1 21.494141894091864 29.479810519690876 36.34340757666975 0 0 0
1983 1 21.79362617752943 28.166251196824767 37.52316880001058 0 0 0
3379 1 29.717963713477076 28.99127008175508 33.534019611727174 0 0 0
1986 1 22.00285640404603 27.189646632860352 35.35743225413087 0 0 0
1982 2 22.28051655788562 28.766191591416305 36.71009998571559 0 0 0
1270 1 20.56774984358921 25.00230715750365 37.91333996601606 0 0 0
3381 1 28.551304040517405 28.543845482291804 31.403221213829994 0 0 0
3380 2 29.4690563102338 29.09786768344198 31.370512663880792 0 0 0
3377 2 29.697754014198857 29.833680940281344 32.698825695922906 0 0 0
3794 2 22.47376689811103 23.794756665296664 32.09968730701195 0 -1 0
3797 3 21.880187289857624 23.597184081073078 33.40291154144316 0 -1 0
1987 1 23.03547129586383 28.44812808422505 34.65610140430881 0 0 0
1985 2 22.824199935007186 27.862682720381027 35.6007281609365 0 0 0
6225 1 26.039579642490043 29.69600057153381 40.367345173410435 0 0 -1
6224 2 25.786409148326744 28.64394937948125 40.4127770102725 0 0 -1
6094 1 23.097758089046984 22.04068253731359 35.11216179141399 0 0 0
6097 1 24.601304193791993 22.907811816062935 35.1283342530445 0 0 0
6096 1 24.323754961434364 21.76753571061142 36.357680028896425 0 0 0
6095 2 23.814051196919053 22.514815995431825 35.773008971551604 0 0 0
6220 1 23.933031050418286 28.81911863919343 39.178868240248576 0 0 0
511 1 22.419265375312204 21.545645107440894 38.14977915297364 0 0 -1
4155 1 29.84119270376631 22.443597302112853 39.99338633206275 0 0 0
3383 3 30.52385785347438 28.1339933888969 31.135161562797045 0 0 0
6221 2 24.30393392777495 28.378694963137015 40.135463830301276 0 0 -1
1981 1 23.084176467421635 29.38338524718227 37.139333288181504 0 0 0
6227 3 26.619205017641278 27.81326623261376 39.66361715719789 0 0 -1
1153 1 27.51989255585603 21.686856917360675 38.08239078720496 0 0 0
1158 1 26.616260567887252 23.01782889188427 35.76023805450447 0 0 0
1156 1 27.1937340239577 23.32285271047157 38.823297513012996 0 0 0
1988 3 23.89452589319695 27.09927184171656 35.99881762142724 0 0 0
1989 1 23.603243570855 26.173031994176682 36.19752777827233 0 0 0
1155 1 25.84699603006756 22.444798033782916 38.19716023428761 0 0 0
1154 2 26.912608100715815 22.6178541036941 38.011484926103364 0 0 0
6100 1 23.740779526856006 24.003007650438985 37.480318664059254 0 0 0
6101 3 22.71297591884483 24.775268763699355 35.851010938895705 0 0 0
999 1 30.163929551012576 26.68291500751478 32.038003302993395 0 0 0
998 3 30.1020997046997 25.925288743585277 32.617036863739074 0 0 0
1157 2 27.09559871523456 23.431046941386313 36.64900938931101 0 0 0
1159 1 26.63443230537024 24.381386205545603 36.68981211444708 0 0 0
1160 3 28.444451901273172 23.529704283453807 36.49461395367304 0 0 0
1161 1 28.608392634982582 23.665528364013536 35.500413996595256 0 0 0
5953 1 25.86411524174864 26.6312850635406 33.50121021902579 0 0 0
6228 1 26.380841919348974 27.97145673463281 38.74406309044471 0 0 -1
5958 1 28.84723782976807 24.92135311002377 33.18363478296243 0 0 0
6098 2 23.155695102156265 23.56962988857076 36.59882281534179 0 0 0
6099 1 22.154338392282934 23.181706259601864 37.09534953916764 0 0 0
5951 2 26.77411032462713 26.21514147316034 33.821131477303176 0 0 0
6102 1 22.19979309924357 24.488084555090335 35.087309909366375 0 0 0
5954 2 26.867682692413055 24.77417782279427 33.46755933403358 0 0 0
1969 1 27.212197399425325 29.427864157702153 36.835869399702574 0 0 0
5957 3 28.231934206322116 24.29733750071169 33.64169600009539 0 0 0
1968 1 26.72287142448828 28.251070449863196 35.609940927586436 0 0 0
1971 1 24.780324649479255 28.00314107766741 36.91371041964006 0 0 0
1967 2 26.356462886969155 29.076201301261055 36.26707050058253 0 0 0
1970 3 25.522003435789358 28.49654158083478 37.31747120322626 0 0 0
1964 2 25.706244918967712 30.141662800375176 35.338892402766106 0 0 0
1965 1 24.8302942717573 29.74523473461745 34.785743110894536 0 0 0
1966 1 26.518758794327734 30.461196188926287 34.723830306271545 0 0 0
1083 1 30.432366393292153 27.62535408680849 36.822919180889805 0 0 -1
5952 1 26.863280061526936 26.37422675826448 34.85801903767179 0 0 0
5955 1 26.26133814651822 23.95491113559992 33.924097496245224 0 0 0
5956 1 26.66713470641692 24.57572855376695 32.419511082725236 0 0 0
5950 1 27.57851348239733 26.734851295236535 33.29020172580085 0 0 0
4158 1 29.574067580053683 22.515559227453448 37.4756535730739 0 0 0
1084 1 30.15252073159864 29.285846795502284 36.05634248121768 0 0 -1
4154 2 30.549449472340054 22.378662509212674 39.176229956179924 0 0 0
4157 3 30.112067590960944 21.823119541388895 37.94694000675824 0 0 0
3376 1 28.801920192319535 30.423277633166435 32.87070423801965 0 0 0
213 1 36.24492159908823 28.227349568692063 40.06756235090861 -1 0 0
209 2 37.18709813742919 30.114044813209066 40.6138324673727 -1 0 0
6170 2 37.925952905373485 29.648362544311794 30.84174275144372 0 0 0
6171 1 37.77482983358091 28.582363740995845 30.631011328756315 0 0 0
6172 1 37.16855972645938 30.13619472432327 31.511699817086352 0 0 0
1429 1 35.91363764291626 25.380372975454 30.76480112410773 0 0 0
4152 1 32.11300931240083 22.113409691883458 40.47661435490788 0 0 0
4150 1 31.33953374810686 20.539272602332428 40.02231519198239 0 0 0
2101 1 31.930304248660438 20.69249213625371 32.51692850793516 0 0 0
4151 2 31.65971854163898 21.552216643846606 39.64809033541139 0 0 0
3662 3 40.67488163325645 23.37784153280049 36.24704966457406 -1 0 0
1371 1 39.98030810578771 25.72104845774286 40.40547538702513 -1 0 -1
1370 2 40.67617450282689 25.819359686356414 39.58590238219159 -1 0 -1
3663 1 40.0571924532043 24.1014970419557 36.40766957289068 -1 0 0
994 1 31.920299282928635 24.58045587507271 31.091720356623874 0 0 0
3378 1 30.668217528096516 30.32304601494232 32.728989357683396 0 0 0
1082 2 30.83081437317566 28.683587878194107 36.73088240495401 0 0 -1
3384 1 31.36294075021273 28.600423021656418 31.136319339998135 0 0 0
4156 1 30.899409882045724 23.355017319663116 38.95292204568805 0 0 0
3586 1 36.51862281187692 22.548650045030644 39.844614849367424 -1 0 0
3585 1 37.31924375028388 21.05444070254562 39.20289113957025 -1 0 0
3584 2 37.27941183975479 21.735731994454504 40.032467796722514 -1 0 0
993 1 32.09849180986413 26.440715485674286 31.381148297419678 0 0 0
2098 1 30.972975100301365 21.811807137964475 31.66951352496128 0 0 0
2099 2 32.017353127091496 21.466506431503024 31.73892980525793 0 0 0
5988 1 36.2357595551151 21.30565190326756 33.31705585192445 0 0 0
2100 1 32.76656378439166 22.222468524360913 31.961380600309887 0 0 0
5986 1 36.22366749802928 22.949359536425554 33.142709945224105 0 0 0
5994 1 39.223591288516324 22.62169130518872 35.21102422027987 0 0 0
5989 1 36.77111868660961 22.00147922258721 31.832103031840607 0 0 0
5987 2 36.8580078447821 22.095866931451052 32.92418587140688 0 0 0
1081 1 30.713063360010498 29.267487964244566 37.69116048050421 0 0 -1
1087 1 32.381126311225266 27.724512733917773 35.5478247709864 0 0 -1
1085 2 32.29159333255952 28.527482385491794 36.32565287200896 0 0 -1
214 1 35.476823741252836 29.737573023465824 39.51830033864218 -1 0 0
5937 1 36.09509696423765 24.989271536651678 39.19760199526214 0 0 0
5935 1 33.73158713175403 24.623346869340825 38.525898086892745 0 0 0
991 1 33.34749557618895 25.28440128057553 32.088005292255005 0 0 0
992 2 32.26859536134179 25.403374014785257 31.81114048788724 0 0 0
4153 1 32.371624182745315 21.282882645514455 38.880124688908346 0 0 0
1086 1 32.94235457493501 28.24726244867901 37.2054292824379 0 0 -1
3589 1 39.263773528445974 21.406187827970996 40.37985626527227 -1 0 0
5934 1 34.1126636046695 26.334325908824987 38.94113804025016 0 0 0
212 2 36.40255047584265 29.221180416563627 39.670055944845956 -1 0 0
3587 2 38.7068846957157 22.245529327270425 40.20676053446173 -1 0 0
6167 2 39.358159758693546 29.89435132303516 31.33945930240919 0 0 0
997 1 31.706452539595173 26.086367518761573 33.86538501317708 0 0 0
995 2 31.403553632560985 25.463763166877353 33.045436880512845 0 0 0
996 1 31.158929136196928 24.500147083142057 33.46666686512937 0 0 0
2619 1 31.996788337500636 21.727985340283603 36.88240403736573 0 0 0
2618 3 32.86252470762093 21.790422863840774 36.41866989660638 0 0 0
6166 1 39.49226837214694 29.3047959174228 32.26106372405291 0 0 0
1599 1 40.12169034261133 27.524177084436044 31.90581136474179 -1 0 0
3185 3 32.718734164535306 29.92746450586248 30.861726425076945 0 0 0
2617 1 32.21955572077029 22.07629156887324 34.44460755770539 0 0 0
2615 2 32.639545810711525 22.65500195472248 35.278457953367635 0 0 0
3182 2 33.519409992692815 30.123121548398355 32.01895085755607 0 0 0
2616 1 31.84536270161277 23.368786110029262 35.52904506616406 0 0 0
1598 2 40.37230313730252 26.50718660362395 32.08165656089673 -1 0 0
1594 1 40.750274186732604 26.874684449576016 34.05711754680507 -1 0 0
1595 2 40.08849741862997 26.213180308637437 33.47809762910107 -1 0 0
1597 1 39.064577809146584 26.303515432216617 33.77850314832131 -1 0 0
2614 1 34.39675020112248 23.723400183276684 35.84544059409623 0 0 0
1375 1 40.74291271642641 26.62851086620477 37.56835341090508 -1 0 -1
1601 3 39.75556934529358 25.59835288328815 31.168493975302688 -1 0 0
2613 1 34.734620567186724 22.636652663867924 34.47683032318171 0 0 0
1376 3 39.10044312621068 25.420791204810147 37.822039231937914 -1 0 -1
1373 2 40.03886434846237 26.385055196557172 38.384107083616094 -1 0 -1
1088 3 32.74853493806877 29.783565645952798 35.86648925998129 0 0 -1
1596 1 40.50982649919374 25.171051647013527 33.66713461945664 -1 0 0
2612 2 33.99466963389981 23.269975750159237 34.89712584276414 0 0 0
4552 1 36.1454953816354 27.812229776314613 35.512465247535665 0 0 0
5991 1 38.63559934600984 21.12472903108798 33.08957213279687 0 0 0
4546 1 36.689954969067074 26.73589812868083 33.33416712715658 0 0 0
4551 1 34.77282414506103 27.50953688715277 34.64518592437318 0 0 0
1377 1 39.0548430099536 24.5784101671168 38.35227942172706 -1 0 -1
5933 2 34.287016511328346 25.568393473982116 38.204867207764714 0 0 0
5938 1 35.9206101026038 24.472791891106684 37.49398697446967 0 0 0
5936 2 35.72594071065529 25.27736520267382 38.171391823655945 0 0 0
5993 3 38.36185320079448 22.341444885838342 34.89954958543699 0 0 0
5932 1 33.766291961047564 25.759764921644418 37.23135863738941 0 0 0
2611 1 33.81694984426992 24.037219945571348 34.14082365396476 0 0 0
1016 3 39.07081079551869 20.946903985074325 37.18176494847569 0 0 0
1017 1 38.71961814705838 21.179281008457714 36.28081505187913 0 0 0
3183 1 34.53285480678227 29.606425219759306 31.93620837627484 0 0 0
5990 2 38.287481565705036 22.099142480501765 33.46484330853167 0 0 0
5992 1 38.82698923855807 22.933137335612862 33.01400588967235 0 0 0
3591 1 39.1229329281394 22.085730037059996 38.3048410803217 -1 0 0
1374 1 39.4950582496632 27.295638072885325 38.65922990577861 -1 0 -1
4549 1 35.63740665734337 27.85064362665381 32.55963402191114 0 0 0
5939 3 36.42168331568507 26.427900836880454 37.75283675610854 0 0 0
5940 1 37.38312767182201 26.073822878481476 37.838332726550114 0 0 0
3590 3 39.27358677724553 22.80212150168871 38.998322490791494 -1 0 0
216 1 37.20853235505142 27.988769047226665 38.299437087329196 -1 0 0
1389 1 39.650025356677496 29.701512188290792 37.260607475518064 0 0 0
4548 1 37.30440319663171 28.385130196834172 33.081832871282415 0 0 0
4547 2 36.387820607334596 27.873485452147065 33.316730692692275 0 0 0
1387 1 40.442049157278575 30.586639374024802 35.96568330591755 0 0 0
1393 1 38.436283418509895 29.304397114172435 35.17633755484883 0 0 0
1391 2 38.44937544504222 30.277574285422876 35.6642015034915 0 0 0
1388 2 39.58804728498595 30.499160625140494 36.607780649263745 0 0 0
1394 3 37.16985952683379 30.578558653373612 36.26442974117165 0 0 0
4550 2 35.64870857631178 28.137953848863532 34.612204773169836 0 0 0
1395 1 37.09843023585956 29.910494225662422 37.0100952259259 0 0 0
4553 3 35.20330636507356 29.510217234403 34.76635010166174 0 0 0
4554 1 35.83727239661257 30.15414805325725 35.13689578745312 0 0 0
215 3 37.13516739318857 28.941334053145788 38.44813126013496 -1 0 0
1089 1 33.63883901619377 29.751300825051384 35.557690221079675 0 0 -1
3184 1 33.02938410464631 29.41469432621091 32.69387212698376 0 0 0
3088 1 33.52886317784565 30.2217499831896 38.81339021853153 0 0 -1
952 1 6.436169603922561 36.82131832476051 39.56097610677171 1 0 -1
951 1 5.1146889436570575 36.05632307854284 40.56491221153114 1 0 -1
950 2 6.111777476908542 35.94082973235181 40.15264233328404 1 0 -1
2644 1 4.866076862907695 31.33932994537481 30.733143527038884 0 0 -1
620 3 7.165688462763089 37.55979016116432 30.849476626470796 1 0 0
4943 2 2.6800818647843503 40.6204710744898 40.00314719079797 0 0 0
4950 1 1.6583821941055408 40.24659251740238 37.686446170778964 0 -1 0
2639 2 6.752448071277866 30.897480316076912 31.780577033980904 0 0 -1
2724 1 5.589829163394574 30.955312745654904 35.319583005072374 1 0 -1
2725 1 6.02384684546682 31.11649652703806 37.06752710450871 1 0 -1
2723 2 6.121466435314682 31.55222367143842 36.05657464930426 1 0 -1
2638 1 6.424464142121772 31.014442077985592 32.80603913867489 0 0 -1
2640 1 7.718565055447528 31.344554818725378 31.75257731540794 0 0 -1
2720 2 7.5813299136229 31.449670259326183 35.76424122274833 1 0 -1
2726 3 5.768920637751802 32.952854761231 36.04098345472708 1 0 -1
3900 1 10.079759622589942 30.862246112942493 32.91306019558502 0 0 -1
3640 1 7.7597352159630395 30.739969037620334 39.96261791653854 1 0 0
953 3 6.099213324342775 34.79055919230702 39.377566434919665 1 0 -1
4723 1 2.983651713410218 36.0653592403897 40.425327392444466 1 0 -1
1327 1 3.436093928141899 35.38551216736993 30.626559641088726 0 -1 0
2642 2 5.897305761682053 31.698398440530553 30.81342850226237 0 0 -1
4702 1 7.5379032831142645 38.98270647134589 40.22564487927844 0 0 -1
4699 1 8.88899306043156 39.93201174144437 39.69281164499353 0 0 -1
4701 1 7.17416609065446 40.53983119796818 39.53641259729822 0 0 -1
4700 2 7.8725070751159025 40.023266661957564 40.12828609098814 0 0 -1
737 3 0.5587190254272945 39.79729141285179 31.064201273292326 0 -1 0
1324 1 3.0931730989859196 36.81008411084378 31.78871550947363 0 0 0
1325 2 3.542088880891016 36.486263317065664 30.82548490507233 0 -1 0
1326 1 4.5886821490317224 36.59834310667548 30.977121786296433 0 0 0
2645 3 5.943386531536975 33.11476430889175 30.977731251943897 0 0 -1
619 1 9.105080010281693 37.71051548254401 30.67232549871005 1 0 0
617 2 8.310343786722783 38.300414071820136 31.108192527265988 1 0 0
4947 1 3.5672270702769504 38.809948518268904 39.179637570941786 0 0 0
4949 3 2.315587207008371 39.599179494321696 37.79859876124743 0 -1 0
4948 1 1.9032707242231586 38.70535724770215 39.564666494842704 0 0 0
825 1 5.952534036789454 36.67283990123743 35.50602379578057 0 -1 0
4946 2 2.661543644606166 39.36951205482448 39.22192757220518 0 0 0
621 1 7.443904787315056 36.65715678510619 30.67845679342577 1 0 0
613 1 7.503138391533487 38.848005452670414 32.99264578372408 1 0 0
824 2 4.911808919640871 36.94453888319231 35.79623305891722 0 -1 0
822 1 4.719243975810269 35.2031770522631 37.02962740966099 0 -1 0
821 2 4.408699031136037 36.2382773887741 37.01864640304041 0 -1 0
820 1 4.72762549707956 36.73568901448791 37.93192239061139 0 -1 0
5782 1 3.372005265166912 32.7956130835581 31.822682070420566 1 0 0
2781 1 5.74596166811711 40.147180693145685 35.57421177490064 0 -1 0
828 1 4.2741261802435595 38.634615221579196 36.75587958314064 0 -1 0
827 3 4.780213687985542 38.36590656953531 35.977788383050374 0 -1 0
826 1 4.279513910481907 36.684930325128136 34.90251759398699 0 -1 0
616 1 8.85509211065194 37.82178073526069 33.1483493577242 1 0 0
5785 1 3.7268207753585605 32.12457060473456 34.26775363232476 1 0 0
5784 1 3.0224365588282014 33.744161879660254 34.583521795394425 1 0 0
823 1 3.360481767924862 36.173965647523254 37.05591177474991 0 -1 0
2721 1 8.068828152153445 31.92028263707305 36.54902232872874 1 0 -1
2722 1 7.846676387598889 32.00094325229273 34.86763899206492 1 0 -1
1704 1 0.4135294056818052 32.454421098026934 38.4914589395347 0 0 -1
1707 1 2.013340891786908 33.54495447588478 37.05331701752601 0 0 -1
1708 1 2.470168897992806 33.960244138538485 38.67632536978252 0 0 -1
3033 1 7.338456626805513 34.356261371670406 30.62305753708111 0 0 0
3032 3 8.133752489799178 34.89821057376368 30.712604718844315 0 0 0
3030 1 8.222672727386833 34.08067074149174 32.58812622701263 0 0 0
3031 1 9.110141379144583 35.544244178563346 32.33815077425758 0 0 0
2727 1 5.025342257339039 32.89539545306325 36.65127472025376 1 0 -1
3644 3 5.438017680082478 31.905907959876565 39.717980080771575 1 0 0
3645 1 5.872833231894419 32.717226203102996 39.439253127071645 1 0 0
3029 2 8.874907868950888 34.592702915251174 31.899729439941748 0 0 0
3027 1 10.081036747443791 32.78676061357331 31.385973725139486 0 0 0
3026 2 10.141807071993657 33.83702967342287 31.74285366961278 0 0 0
1710 1 4.011081692705241 32.153098083259486 38.53721136423221 0 0 -1
1709 3 3.6613310131991446 32.648954461515906 37.75147245861153 0 0 -1
5787 1 5.37243286485953 33.569067088357095 34.38490597053599 1 0 0
1705 1 1.7501437595082785 31.680287929855808 39.585379033924596 0 0 -1
2646 1 5.711000598653742 33.2755655207825 31.96667975942822 0 0 -1
1702 1 1.6271413258348688 31.188672772739622 37.95438748979972 0 0 -1
1703 2 1.4594079965776732 32.040584735539184 38.58708220373509 0 0 -1
1706 2 2.358132299187547 33.13137147805548 38.01407301966924 0 0 -1
5783 2 3.6185750446709943 33.13035489028424 33.90416106061748 1 0 0
5786 3 4.834555227286443 33.82760704311819 33.646320087855315 1 0 0
954 1 6.969002634792755 34.82502032850433 38.86989365872917 1 0 -1
5780 2 2.7488577983699765 33.01237638460828 32.65912523027758 1 0 0
5779 1 2.1844392647435784 33.92270088873686 32.39549167795168 1 0 0
5781 1 1.9955670877385934 32.25119193467643 32.87852948154922 1 0 0
2126 2 8.10700829503509 36.367576620559475 36.942800362925695 0 0 0
2127 1 7.768871502973367 36.86647510193103 36.08858278546144 0 0 0
2128 1 9.084044722056149 36.76584034895507 37.16803961646497 0 0 0
2129 2 8.192678267953498 34.85859853026729 36.72625223274438 0 0 0
2132 3 8.266242671379809 34.20657474985533 37.992256307079664 0 0 0
2131 1 8.975927041619864 34.64535093469537 35.92845059719245 0 0 0
2130 1 7.254445381048514 34.43317384827634 36.32710968155847 0 0 0
2133 1 9.095589366371346 34.49707646600456 38.457493761803725 0 0 0
614 2 8.466963077536757 38.64327051860601 32.5984069378006 1 0 0
2125 1 7.524621566593902 36.58223844056657 37.84616636538834 0 0 0
615 1 9.002826462065913 39.56804794890961 32.74606390119259 1 0 0
649 1 0.6380346689655852 37.28267211828143 37.18315467373391 1 0 -1
651 1 0.7386450262731473 35.59566542108511 36.551043315651214 1 0 0
76 1 9.997046224408765 38.11883642894152 38.56650672232046 0 0 0
364 1 10.116208570357236 39.583514328268755 36.14884108604943 0 -1 -1
2058 1 10.187638824459263 31.744084160666677 36.95207864335609 0 -1 -1
126 1 0.07751394902783336 36.642279696298864 40.757461861934 1 -1 -1
732 1 0.9573647508053016 39.05801405876949 34.383570987626705 0 0 0
730 1 2.0941479183617253 38.603828820062745 33.0715552017383 0 0 0
731 2 1.2835161912153947 39.27804873054033 33.27912559928316 0 0 0
733 1 1.6760710611305523 40.31545123274978 33.355846969527605 0 0 0
734 2 0.17972596566181542 39.2672038225135 32.30582567103865 0 -1 0
650 2 0.35611093984481407 36.21842382200007 37.289220754934355 1 0 0
652 1 0.7720769343516579 35.8541034465833 38.18469258445627 1 0 -1
2695 1 12.429178020415579 33.50438203612997 40.21366169374659 1 0 -1
846 1 17.1248947321734 34.85722938842291 40.32696516824808 0 0 0
75 1 10.632978801417233 37.87876911922717 40.20695251106044 0 0 0
5448 1 20.087108428125653 39.441710607719976 40.35518885720575 0 -1 -1
5447 2 20.082063530373567 38.36366290943965 40.23832106252527 0 -1 -1
5202 1 14.78766763740189 36.62802635670035 31.55377030777727 0 0 0
3747 1 18.999368968254274 40.70463873083378 34.8799522743023 0 0 0
366 1 12.417457920298215 40.58312995139617 35.33907585109294 0 -1 -1
5849 3 15.256019759943637 40.409284449480644 33.713463273331136 0 0 0
5850 1 16.097699676419577 40.369365725258106 33.1855752307408 0 0 0
4049 3 17.31060307755936 31.206533426883254 36.71569540795517 0 0 -1
4050 1 16.36385175696797 31.377519360594064 36.673816798307506 0 0 -1
4046 2 17.76178680060242 30.842653392228637 35.43688234003035 0 0 -1
4043 2 19.295184131807144 30.674955051832928 35.74292513755474 0 0 -1
4466 2 18.142366952380826 30.877549058623032 31.094798182696252 0 0 0
1858 1 18.728668392216424 31.54235352918647 40.547991939136075 0 0 -1
2716 1 13.240383299960717 31.63756513110555 38.92844429187574 0 0 -1
4469 2 19.538490596493478 31.178788161523197 31.572694047704697 0 0 0
3028 1 10.59021788746041 33.58580170746834 32.730345110194754 0 0 0
3025 1 10.812310657996486 34.4467196835991 31.16741632056141 0 0 0
5553 1 16.250204943152017 34.834125524841994 30.84962058831157 0 0 0
1851 1 12.716931463544514 31.463357214425617 31.10242602154061 0 -1 0
4042 1 19.79894821517791 31.588774128201795 35.97902870002788 0 0 -1
4047 1 17.461812374355308 31.576437672600676 34.659908553441674 0 0 -1
81 1 10.510887792792229 35.41918017818102 39.9852870944548 0 0 0
5201 3 13.863560835033764 36.9605294925173 31.652618805742808 0 0 0
2501 3 17.45583174886979 40.38649994579314 32.23757881498897 0 0 0
3745 1 17.447915754087823 40.45961739047729 35.85503498376751 0 0 0
1856 2 19.801568868603656 31.518104000110558 40.30457260260408 0 0 -1
4465 1 17.57455349885039 31.837213596589052 30.951130701779064 0 0 0
2717 3 14.26364242497855 30.989108672518906 37.381092231789204 0 0 -1
2712 1 15.298289745368008 32.00992177653544 40.3057382072668 0 0 -1
1853 3 13.537410599736601 33.30590599781875 30.795882706602328 0 -1 0
5452 1 17.987600155807407 37.917546809840154 40.29065432348251 0 -1 -1
5199 1 13.785584439631343 36.253514835830565 33.61528357908803 0 0 0
362 2 10.587482922689686 40.35414611367362 36.737951805726524 0 -1 -1
363 1 11.030938682293224 39.97703196564157 37.63315092112351 0 -1 -1
1859 2 19.970635632233712 31.925984437397034 38.810594997416324 0 0 -1
2710 1 16.327001070199888 31.09261802536006 39.186503013862655 0 0 -1
2053 1 11.056946687637707 34.0608811073924 37.2279747242416 0 -1 -1
2714 2 14.10782719209733 31.065589649365933 38.85277997078634 0 0 -1
2711 2 15.407822597828352 31.696441563405656 39.25747418162079 0 0 -1
4470 1 19.61485794679928 31.902392390555335 32.39812065886202 0 0 0
2713 1 15.670081331713234 32.65331635269874 38.656638654809 0 0 -1
2931 1 17.925189542992317 35.98676819801634 36.973559307866836 0 0 -1
3075 1 13.133180110280666 40.70782761343989 30.73184547643714 0 0 0
2928 1 15.638605514202377 36.2561255317649 37.4447211252528 0 -1 -1
2929 1 16.64781650543317 37.71644109537412 37.75275133376137 0 -1 -1
2927 2 16.32146489423009 36.77307472461477 38.12611361850737 0 -1 -1
2933 3 17.619979734762424 34.73583463096882 38.50353284824821 0 0 -1
2926 1 16.010246142420552 36.81355167394213 39.139028300318714 0 -1 -1
2718 1 13.390259281443843 31.001500460504474 36.9445882319337 0 0 -1
2060 3 11.862760380516981 30.970528554695306 36.14611641791398 0 0 -1
2930 2 17.692703638142785 36.021850264364296 37.994871648036586 0 0 -1
2934 1 18.385795878679932 34.24510345411023 38.31670977424153 0 0 -1
2932 1 18.468672216258955 36.54283669599566 38.564893121789645 0 0 -1
2055 1 12.622694653340622 33.5041147602263 36.574025918499 0 -1 -1
2059 1 10.597429124956356 32.45096118430507 35.35064174345701 0 0 -1
2057 2 10.990818482100181 32.092121474791384 36.34631538617675 0 0 -1
2056 1 11.987354894622424 32.89337672228424 38.19275379416067 0 -1 -1
5848 1 13.797558345888497 39.2460230997886 34.23810927758696 0 0 0
2502 1 18.165697812691853 39.75427804363164 32.58081548291547 0 0 0
5844 1 16.49741867703117 38.38066473092373 35.406976156647275 0 0 0
5842 1 15.48478153813109 39.62869263198145 36.06425549013578 0 0 0
5843 2 15.402721955608282 38.69603454641553 35.46028399781538 0 0 0
5845 1 14.846577383693205 37.89849638860331 36.00832566020206 0 0 0
451 1 14.59539407218032 33.77985851746969 36.516703476732005 0 -1 0
2054 2 11.718056610491898 33.22398696507839 37.1493938678196 0 -1 -1
456 1 14.673745996145948 31.842985166587454 34.76266625984681 0 -1 0
457 1 13.487456873708288 33.146983439559364 34.38158679595473 0 -1 0
452 2 15.215063333981654 33.83474731758941 35.57449364730485 0 -1 0
454 1 16.196188214544296 33.509239829428154 35.85860755208242 0 -1 0
455 2 14.559516129752982 32.93679756425634 34.52218162761261 0 -1 0
453 1 15.424842464802815 34.827289537527335 35.19831474592464 0 -1 0
5200 1 12.776096301279567 35.38537776984354 32.44299744357811 0 0 0
5198 2 13.184776364493782 36.35697802284724 32.69095917965637 0 0 0
5846 2 14.852595979387603 39.12772227593727 34.10515565021717 0 0 0
5197 1 11.213446779889663 36.702091164036595 33.59293538722003 0 0 0
5195 2 11.933752475348758 37.12730478076554 32.956100897043264 0 0 0
5194 1 11.511200863159115 37.19021999776542 31.911018839280477 0 0 0
5196 1 12.034200702831493 38.15306105860024 33.19497024004335 0 0 0
458 3 15.235074998530292 33.12156638292956 33.24467070829909 0 -1 0
459 1 14.580152962596017 32.93193039706362 32.531298800914755 0 -1 0
2016 1 16.77955874415428 33.57157205363789 32.610825669340606 0 0 0
73 1 11.713901795972808 38.60623314281343 38.946729936836824 0 0 0
80 3 10.395057362306032 35.530242694512154 38.98074595761929 0 0 0
5847 1 14.978044868729027 38.36106964003845 33.388995851581384 0 0 0
78 1 11.510222777894196 36.67474652413155 37.56850779931519 0 0 0
77 2 11.338040930281181 36.557650049185796 38.693096424093945 0 0 0
74 2 10.844644992327382 37.881900578481876 39.12098918005679 0 0 0
79 1 12.283513899910096 36.232436790958495 39.16961747912823 0 0 0
2015 3 17.508486326173646 34.06089059329093 32.11034039668851 0 0 0
2012 2 17.983930360904164 35.2293484403904 32.79257388930723 0 0 0
2013 1 17.284959379356394 36.000981717563754 32.96556402866984 0 0 0
2010 1 17.84878870984327 34.38244974132384 34.720825768962825 0 0 0
2009 2 18.620948161130023 34.84724603320319 34.07771490122008 0 0 0
2014 1 18.754403628532064 35.60511788036538 32.09209219937875 0 0 0
3751 1 18.782017707482957 39.966840954765885 37.81541380069312 0 0 0
3752 3 19.253637081808048 38.60875259135768 36.38643126403944 0 0 0
3749 2 19.208966904958874 39.93633345545422 36.84512583257313 0 0 0
90 1 19.41700674759224 38.912928290320195 34.243540495692244 0 0 0
1862 3 19.91358997054216 33.322580888254755 38.65538424823999 0 0 -1
2008 1 19.381867032399768 34.11850679865111 33.861922613930275 0 0 0
89 3 19.40209526350864 39.08073901746066 33.26611466167603 0 0 0
3750 1 20.20920407686007 40.40009007014883 37.02362248949347 0 0 0
3753 1 20.047454801911464 38.19795663783264 36.71003077625547 0 0 0
1861 1 19.129734454928034 31.546140112314642 38.28278077991231 0 0 -1
2011 1 18.937016356825737 35.70625313688929 34.68618224679039 0 0 0
5449 1 19.94265203328309 38.11848467313108 39.15146838954487 0 -1 -1
87 1 20.008393146578214 37.12474367878653 32.68017411861283 0 0 0
4908 1 27.121968555872026 33.60832515681172 40.78061288636838 0 0 -1
4831 1 23.257871934283834 36.93443007651412 39.5155802837465 0 -1 0
4829 2 23.769320183520378 37.06332889560909 40.50257303350233 0 -1 0
5446 1 21.114290155752382 37.87537909906645 40.66590551863679 0 -1 -1
4907 2 26.05875451852473 33.81798281821281 40.637734095869625 0 0 -1
4197 1 29.707743525112804 31.3467111438283 39.81623687663823 0 0 -1
4417 1 23.56910282719362 31.66331786052825 32.43645742330614 0 0 0
4418 3 24.63546385168173 31.75813275768581 30.653613479941008 0 0 0
4415 2 24.389427700308957 32.256835224644746 31.950846332090467 0 0 0
4416 1 25.29109637375351 32.14083937953911 32.54155290651348 0 0 0
3547 1 22.586452733169438 40.0446380081923 38.66926522089424 0 -1 -1
1005 1 26.750025874981176 40.78700747896202 40.74639828057672 0 -1 -1
4096 1 28.073832780418794 40.23915251605744 38.07744182374014 0 0 0
1963 1 25.40789792203549 30.971447956663305 36.01811235825802 0 0 0
4195 1 28.72266142808876 30.676133888325264 38.5262862455671 0 0 -1
1860 1 20.841122638016593 31.513107308260917 38.31550928980732 0 0 -1
1863 1 20.79117706818897 33.68131939058512 38.39644332383366 0 0 -1
84 1 21.091832842627724 39.42262683428561 31.112022901870542 0 0 0
4825 1 25.02384525454193 38.41319262514037 39.72221887695684 0 -1 0
82 1 21.5380982111372 37.77131325114664 30.963814240757724 0 0 0
1866 1 25.820840069600887 40.644322130733656 31.966182067299304 0 -1 0
4826 2 25.158597668444372 37.47106788469189 40.204918253430314 0 -1 0
4827 1 25.716871333174225 36.68779411380877 39.64390869713563 0 -1 -1
88 1 21.29710992916139 38.20997885595114 33.40671224350909 0 0 0
1865 2 26.88101703453375 40.75127711073455 31.643042318356102 0 -1 0
4411 1 23.1061088462868 33.819359552845604 31.288074606206322 0 0 0
4911 1 26.382201329092975 34.5855640966289 38.68824618138028 0 0 -1
4414 1 23.729689457754915 34.00782001867651 32.93012186942555 0 0 0
4912 1 25.763470803071293 32.879988357137194 38.679590980565344 0 0 -1
4910 2 25.680151485955047 33.873888557634544 39.130965654813444 0 0 -1
4412 2 23.988039038266137 33.72005299384261 31.883642147649542 0 0 0
2656 1 23.768182774534903 38.02912944818904 33.25242632670152 0 0 0
4413 1 24.668584557943703 34.52695678848915 31.474294670116148 0 0 0
4201 1 29.71913254427557 33.56465090190201 39.14809276486244 0 0 -1
4200 1 28.128576346800656 33.0181049474751 38.705685994909885 0 0 -1
2661 1 25.75663264606502 38.219919284303195 31.808165224238298 0 0 0
4198 1 30.370249396898775 31.097402449218965 38.18006370270174 0 0 -1
1663 1 21.01104511570549 33.59840818659991 35.721031134316036 0 0 -1
1662 1 22.44714062781582 34.525297660103085 35.23752043471619 0 0 -1
4202 3 29.343940891218644 33.16226368357142 37.118429392427906 0 0 -1
4196 2 29.479631889952362 31.42353036856345 38.694253099339356 0 0 -1
1659 1 22.312255099805753 31.76243131843907 36.59638020084294 0 0 -1
4913 3 24.348914470386244 34.23696127446529 38.957678010724486 0 0 -1
4199 2 29.16954870816377 32.89148497830613 38.4892878293162 0 0 -1
1657 1 22.60685671725744 32.04959752744858 34.8847643338438 0 0 -1
1661 2 22.062956732353907 33.86615107148152 35.98296634540355 0 0 -1
1664 3 22.108218450033647 34.356758349227086 37.313540132994206 0 0 -1
4914 1 24.04379857146496 34.8156274900509 39.71266175208122 0 0 -1
1665 1 22.89985592664583 34.03003378880497 37.729895960960754 0 0 -1
2601 1 21.777051400029098 36.288970795732226 37.41421388213961 0 0 -1
1658 2 22.781234065213525 32.43260835163968 35.86208474766277 0 0 -1
1660 1 23.860276802569757 32.38772542435607 36.08221219932456 0 0 -1
2600 3 21.540209747229802 37.22494967686236 37.15798842549721 0 0 -1
86 2 20.395688500553774 38.13072038946791 32.7178397249639 0 0 0
2598 1 22.082090630066208 38.50904680220307 35.59736070594554 0 0 -1
2597 2 22.383486508487092 37.536070862471774 36.00217898507185 0 0 -1
2599 1 22.298399947405013 36.810450721601214 35.27763899769414 0 0 -1
2594 2 23.84359553498144 37.67704703762241 36.43202659496225 0 0 -1
83 2 20.74191772138983 38.408438352474036 31.2756780842243 0 0 0
2596 1 23.91287397503245 38.53868776779103 37.07971358625424 0 0 -1
1864 1 27.494824399447353 40.01808950716291 32.09298892185358 0 -1 0
2593 1 24.414924526604576 37.94267150402662 35.55200826744135 0 0 -1
2595 1 24.337667901390216 36.841774804726526 36.92938837957347 0 0 -1
2199 1 26.80547514978079 33.99987563801873 33.687099504785344 0 0 0
2197 1 27.110331383322688 32.77098979905553 34.84048479319957 0 0 0
2202 1 27.27739499176379 34.56513713919923 36.624250435149726 0 0 0
2200 1 25.528027865607147 33.53134482687873 34.987928307982415 0 0 0
2198 2 26.605834929096837 33.74558134509038 34.73883545597723 0 0 0
2203 1 28.412387767255844 34.70311370464908 35.31424935136605 0 0 0
2664 1 26.931524851814487 36.36622332472477 33.37061505779438 0 0 0
2663 3 26.75640592751439 36.62614374329719 32.418309260917745 0 0 0
2201 2 27.38278458085172 34.823509245738094 35.565165380219696 0 0 0
2658 1 24.25123502445812 36.46274932630776 33.8292066740507 0 0 0
2204 3 26.922359502249375 36.12582542183339 35.16257305581909 0 0 0
2205 1 27.523157637698628 36.70221406853652 35.582723101324056 0 0 0
2659 1 23.809735414958116 36.72350640764065 32.11395004114988 0 0 0
2657 2 24.283851635857687 37.14703078674974 32.9805388199072 0 0 0
2662 1 25.990297799935046 38.29656139131571 33.48507060736437 0 0 0
2660 2 25.73378133231145 37.61063717606669 32.716686903817084 0 0 0
4101 1 29.08862781708512 39.68776393203106 35.870173157390106 0 0 0
4100 2 28.973314955338374 38.97549980201591 36.66596730843344 0 0 0
4103 3 28.916560539900026 37.642624846689756 36.10421395881741 0 0 0
4097 2 27.778200497049127 39.369734052123434 37.45150098998737 0 0 0
4104 1 29.685959985297234 37.63187632409097 35.4658573056028 0 0 0
4099 1 26.91310701988106 39.597970307471634 36.805008309142586 0 0 0
4102 1 29.909255396545625 39.00674731737856 37.30574044096197 0 0 0
3441 1 29.265267332304703 34.659799276317486 33.478109070137805 -1 0 -1
4098 1 27.481160137684927 38.568446868318 38.16412301718954 0 0 0
4203 1 30.259793937284297 33.34646018432208 36.85775389898969 0 0 -1
3444 1 29.795199885405662 32.46559057175617 34.98820878672019 -1 0 -1
3443 2 30.494736352936275 32.99438628301849 34.297014701629465 -1 0 -1
567 1 30.347492217660072 36.21087092897784 34.24145334375348 0 0 0
1893 1 28.778245885422695 36.21810819668222 31.168872437064078 0 0 0
2409 1 30.25131531176066 35.57588605016423 38.576546973233725 0 0 -1
1891 1 28.530179006446694 37.73944688460767 30.704651828984222 0 0 0
3440 2 29.871891666697845 33.78789308018131 33.23373194197744 -1 0 0
3442 1 29.2317088696408 33.0873080473131 32.70602539149182 -1 0 0
5602 1 33.41563621642133 40.69147983774091 40.44755575593201 0 -1 -1
120 1 39.85113646357113 39.715348762392225 40.67485968704918 0 -1 -1
2412 1 30.82032781907672 35.961972232440665 40.750318821693085 0 0 -1
3574 1 36.105713955193885 37.33716566378344 31.390395817669255 0 0 0
6214 1 38.86617187114926 40.04879299640415 38.01000189803718 0 -1 0
6212 2 39.870747317199736 40.33915544450463 37.87811572376866 0 -1 0
6215 2 40.0649221501304 40.63747688787792 36.3757020862341 0 -1 0
1390 1 39.468589240542265 31.354483777041743 37.26860100169923 0 0 0
1392 1 38.513331293250765 31.073665383537623 34.89401479648474 0 0 0
210 1 37.5134626851834 31.047224039647336 40.163441739724895 -1 0 0
3181 1 33.924566518697375 31.53762231476918 33.51779915587047 0 0 0
3179 2 33.59724106374137 31.530031672601304 32.45101847935774 0 0 0
566 3 30.737256572591463 37.09991378511753 34.42439211777331 0 0 0
561 1 31.127280674485945 38.54412618898065 31.991782693961937 0 0 0
559 1 31.126283446155444 39.29374620245819 33.46972430511938 0 0 0
125 3 39.90162484579878 36.798939562688275 40.48118993291363 0 -1 -1
6168 1 39.49555827340231 30.9349293642645 31.618267357636594 0 0 0
603 1 37.27648794805855 32.359157805548804 36.944397025362456 0 0 0
3090 1 32.07327996075201 31.093201298844527 39.4433219297019 0 0 -1
735 1 40.63177603473322 38.21349771799375 32.057870324010615 -1 -1 -1
655 1 39.385738541818235 35.06763732608522 36.91454187675162 0 0 0
2410 1 31.715327336549866 34.648793342906764 39.062200630837054 0 0 -1
736 1 40.11800321221803 39.804495925505606 32.747052134760594 -1 -1 0
654 1 39.37690391671091 36.69436641452369 36.15340117549705 0 0 -1
3511 1 40.771391768259406 33.45201171382155 32.44917858955728 0 0 0
6216 1 40.063363319586365 39.67085567407687 35.78079536220995 0 -1 0
6213 1 40.48310561794706 39.472566115563076 38.04542387987195 0 -1 0
653 2 39.67017729695368 36.14611540965392 37.03994355491478 0 0 -1
3180 1 34.2121472430526 32.17636481774417 31.819531059298235 0 0 0
657 1 39.15822033949163 36.60348355637164 38.90331659855164 0 0 0
656 3 38.73355365453637 36.66718886106452 38.02407541071903 0 0 0
3446 3 31.256140509314076 33.854426708040606 35.18114062081352 -1 0 -1
3178 1 32.61405644565366 32.02788591487104 32.31894567269387 0 0 0
3517 1 39.610549318299434 33.55358401291809 34.89332533472561 0 0 0
3096 1 32.762972585419675 31.507311204766324 36.61338362110099 0 0 0
3514 1 39.089430132413085 33.78846277826651 31.866562866080983 0 0 0
3512 2 39.783112307690864 33.92683264789359 32.70086657221355 0 0 0
3439 1 30.651503054313455 34.17157158508905 32.580245100967744 -1 0 0
3091 1 33.75981814004974 31.332942980905262 40.0862309454992 0 0 -1
3094 1 34.61864988262518 32.10753674652972 38.0506046215476 0 0 0
3089 2 33.16259222699081 31.14755486770068 39.23244224299633 0 0 0
3513 1 40.01517674365784 34.94141355427472 32.95098570793768 0 0 0
2411 3 31.30158697648309 36.400106983359954 39.994263138543474 0 0 -1
5209 1 33.6845134883432 34.67171897903058 33.89685231775043 0 0 0
602 3 37.642278037816276 33.26032392470518 36.98549934018943 0 0 0
600 1 35.7902602953015 33.50188779597932 37.98403322613205 0 0 0
3516 1 39.5621757144227 32.141315928342415 33.88965446760636 0 0 0
3445 1 31.250121789322282 32.2812957515561 33.918207893335904 -1 0 -1
2408 2 31.273435802961764 35.664391933017235 38.859989362896194 0 0 -1
599 2 36.7954511509542 33.99220793228624 37.93533140911475 0 0 0
601 1 36.80360183161547 35.070739866749925 37.566909521586076 0 0 0
3577 1 37.71860173402013 37.44492772315609 30.777762315322924 0 0 0
595 1 36.77357172985092 34.755243337546794 39.91604753030419 0 0 0
596 2 37.3905281149505 34.07294419249534 39.264631342618166 0 0 0
597 1 38.342579361569776 34.5124806586191 39.155500467321374 0 0 0
598 1 37.402446754568444 33.10775956963496 39.765203821474564 0 0 0
3519 1 37.69228790551392 33.09655404370921 34.963011958881836 0 0 0
2406 1 33.16990545363636 36.37450627368573 37.93707431424577 0 0 -1
5206 1 34.73942377926656 36.19975309828913 35.594914884583524 0 0 0
5208 1 34.93169554885994 33.817454225518254 34.731104766255 0 0 0
2407 1 31.84819499681536 37.39598192899635 37.571995095962976 0 0 -1
2405 2 32.105675995176036 36.369684436705676 37.732405425267736 0 0 -1
3515 2 39.275576326116386 33.17542318755242 33.92278624470402 0 0 0
5205 1 36.278562065966575 35.99902422325912 34.82038497670767 0 0 0
2404 1 32.08229323650896 35.78510380567905 36.770199980457654 0 0 -1
564 1 31.932383022997616 36.505962627849264 32.851563148939746 0 0 0
3447 1 31.914566591153104 33.327309023317945 35.76503932766201 -1 0 -1
5389 1 37.315018720323046 39.79960092060739 36.19900542022711 0 -1 0
560 2 31.770451343639646 38.64068914989377 32.9318282392075 0 0 0
3093 1 33.51071699360776 33.260473914231575 38.6612417065602 0 0 0
3092 2 33.55874643676815 32.21971456933996 38.26649038880314 0 0 0
562 1 32.68286596591717 39.18101558368717 32.75058234365131 0 0 0
563 2 31.842603143167917 37.30415843980225 33.59966379308234 0 0 0
565 1 32.733163413937284 37.33567084703411 34.213323905508716 0 0 0
3518 3 37.80905703132587 33.11624799966529 34.03391891969038 0 0 0
5204 2 35.17340617847383 35.9731362745379 34.6090925384492 0 0 0
5388 1 37.13352597919501 38.2317351505379 35.61351325933688 0 -1 0
5387 2 36.66140364773989 38.94914390688182 36.34288228862475 0 -1 0
5386 1 34.58881772662236 38.397373986143926 36.13959764219637 0 -1 0
5383 1 35.21683559956024 39.58906483834063 34.91898010220097 0 -1 0
3582 1 35.91959547288453 34.94285968452271 31.240756117226894 0 0 0
5385 1 35.002500901538795 40.17819916872494 36.546685204965854 0 -1 0
3095 3 32.777456357267525 32.368630658519116 37.094326807641565 0 0 0
5384 2 35.23231660706655 39.264100012216474 35.943705553709506 0 -1 0
5211 1 36.457018363615624 33.909620038583704 33.11606198162526 0 0 0
5207 2 34.789121895839074 34.613719823211405 34.018725286855215 0 0 0
5203 1 34.873325274929336 36.79536031399759 33.97726003862003 0 0 0
5210 3 35.54229583207749 34.28528476283733 32.80017874546826 0 0 0
5391 1 37.43544070758279 37.873348938810324 37.81612833145471 0 -1 0
5390 3 36.64447771736918 38.384588342841504 37.64886160061598 0 -1 0

Velocities

719 3.9487519880212862 5.108663945657567 -5.172883889201798
720 -15.341654415101937 -21.50371970977358 12.121519795502524
3743 6.404596676581138 -3.5027446144360677 -1.590644984565272
3740 8.693653962151647 9.641293180085771 3.9117847128355385
5238 -24.268821226742666 -17.871300122065872 5.090957811454067
5237 2.090317568703411 -0.7753905761540274 -2.6610592210568536
4752 2.158464887228908 -17.516032872442228 -35.38988701825153
2261 -5.655986040418376 11.368228139952627 -6.7860594844435695
4751 0.1976059471060842 -6.358107353124915 -3.4751994786701936
5778 19.713092796869535 -23.809853660383485 7.281174178732194
5777 -2.9721372192641295 -2.406961464901432 -6.293659192557141
4748 0.8807334548562379 0.0828106645546895 -6.67823010836675
3563 5.439924305774453 -0.5011988766086958 1.6748864019581033
4301 1.0550166493501392 7.899542264588964 1.0038563033482661
3564 21.658181850114605 -0.6411788281109503 -4.6596767204856775
2266 3.3451522376192093 -4.952311764890517 -7.742209885288381
2264 -4.004903226674509 3.401750308837489 -4.880536349944015
2265 7.4511894027984455 -12.77878473569107 9.187530118329299
2267 1.2204593007629398 2.64262570885975 -3.4977547946470273
2260 26.894993996076337 -7.1618575312221795 12.696343547797362
2262 3.7202691855139958 -15.307229198979782 13.57362655514233
2268 -16.56509636007602 10.24957769854219 -2.6424329851034507
4745 3.148327785802871 -2.596871142811836 0.7802223604612873
4744 -2.332775242685744 -3.3074224230492666 14.239189349987804
221 -4.9445026571130715 -5.825089817474173 2.054905318002262
224 0.608866464162633 -5.8899972517368235 4.0018140863530185
4302 -2.1818639748500153 5.030620632797049 -6.115476936510707
4931 1.7257227718353743 -3.741964331813279 2.30476797341618
4928 -1.613564833820626 -3.7504833659667836 -8.341494095873095
3738 -2.290300400209156 19.717234223311998 -13.040498109952575
4298 0.5460784805067911 -0.7290488073727058 2.1671063108927298
4295 -3.6810789181608374 1.0560609508958576 -3.663159304991911
4297 12.178568169340917 22.283463524124763 5.814948304657228
225 11.52912087509369 -17.581728432822963 -13.256573201278204
5234 5.891541007349102 -6.322180490743775 3.7036157499249045
4300 1.4443691459029002 19.65226266072537 9.386628296776141
4932 9.564586700991944 23.138016962782622 -3.0912361917513453
5235 -8.139764593277397 -5.273969650233856 14.840845401994553
4299 -5.8877547429450034 -23.563200768874875 -12.07116335156283
4294 -4.298622331453122 -5.3927356642003454 -5.349678632556946
5230 -2.820664895965446 14.183219767509295 15.80523759175323
716 -6.49174868816675 -4.754694817074434 3.6821805900800193
855 15.325114714066435 27.32313723348549 -14.153365451898063
5231 -9.000063151783483 5.1715921380604195 3.714568613753171
3741 36.52007821086879 24.09580588913355 14.839680995266608
4929 -6.651699632453183 21.522005808401122 4.949785430035754
4296 -4.509215376552194 15.940516748449012 -13.6140896467869
718 20.135628796098604 -29.614588292993194 -14.80607175677737
5233 27.415086160684737 5.2894799981871925 16.371601113337732
3561 -19.996051468028323 -23.314132276197853 -6.006274269575019
974 -3.999779507202559 -4.530435163250783 0.7233267199532999
973 5.547849129303969 -12.284571672921585 -21.241758506099377
219 -44.647939511439105 7.409270884361966 -30.008655006653633
223 0.9862856428077041 -0.16430815265775817 -2.833223086226478
4750 4.856761497480635 -7.976822648314531 -5.570688728798557
5774 4.655959383402539 -7.604610470434411 7.122948166233382
4749 14.320021934414864 20.434659637653947 0.7362300838659074
2263 -4.076005740239123 15.923376789566616 20.717541044201496
5776 9.719709707478831 10.060987058335447 3.7353333928214694
5236 -7.653533774530418 18.248766589165974 14.691777076840168
5232 -26.136104088748287 -38.09826789086051 18.190733792959712
3737 -3.969989161199281 6.583955509856327 0.6235662213331394
3742 21.76630515962579 21.539624496128862 -10.746648642392563
5744 -2.364447954245507 -5.574579242661509 -0.28535301423795284
975 -5.837139782882363 11.319464016209361 12.54418327351004
5771 -2.5026733744558247 -2.818695503503949 -0.36627644027205875
5772 -5.618958679726858 9.875837302916562 -24.07242541973269
976 5.593106647693311 -1.3971079814455762 0.18555895008424123
854 1.0675921001668727 -3.6144488203865666 -5.5269949849581534
4930 20.33587006672095 -8.423829729281524 -15.822503859331478
4747 1.1635103136453524 -5.45084193636693 -17.139627634616204
5743 -25.9022668961571 3.0813174362570828 31.35692705535532
4746 6.995738764884864 10.597517340676248 -10.774044743023257
980 -0.6012739908723768 -3.6955508021930927 3.7203884452554856
5770 8.831325211401493 15.96199527713799 8.042267302551359
218 4.904517917255511 6.033767968852341 1.8887360188740998
977 10.738318911875655 3.586395150765643 -0.5586188771040813
5749 -34.890657183980835 0.44811746655767226 11.19803749795688
5747 -0.39363692956252216 1.244660154840856 -1.7553371042501933
4181 -0.054482701520678016 -0.6176619567969797 -6.150931495456714
4182 -3.0766665918755884 13.552578174855727 -9.701090483108267
5748 31.21275260722073 -6.084299554654123 -17.284057087844133
717 10.368139647203613 -1.8382019154068814 -16.894017210580277
981 1.6852134042550135 -15.505209587043773 26.829530818565775
1635 19.47585911982536 22.657863368174777 1.266469817119643
1636 14.381602803653097 8.68429166526962 5.892285435903726
220 -8.899030152617401 5.187431485303357 2.0320628407697385
3739 -5.1664223117251655 3.6045651386462527 16.775973085968584
3558 -16.981625200011287 26.28510720718238 -28.917841985247957
2319 -16.700148861059397 -18.541609203982016 13.45877043537314
943 -12.067287992630675 -7.024720454643878 6.296746614602955
944 -0.2598681502269039 -3.163306315619675 -1.4553571643002217
945 3.097080987753474 7.733531838131819 30.501442035634376
941 9.849656234576559 -3.2977818482901933 2.3180551013703634
942 2.6925046306530396 -6.795389369166371 -16.212886392728727
5746 16.889747696989087 -12.163123477716194 2.448647185864456
5745 -0.6306420516864537 7.299198414929316 28.42966885789816
713 -3.0863496123676626 4.659232977673731 2.29661209585417
715 6.818304031419183 17.524135052199195 37.174851768361506
222 12.978816291294736 1.2715732443578294 -16.362826530163613
3736 2.65742298118622 10.398013548665448 11.216299833976421
4927 27.35323486145831 -11.941389819465398 -2.622064520341965
4925 9.573852575307809 -2.566086155064681 0.37642413518348583
4926 -15.03007241604605 -6.736451912415094 -10.646645843131514
4705 34.174388479793194 8.31700442742668 23.048512229761656
4704 7.672421414792205 -16.443598683809235 -0.7092770323359033
3690 -4.683903936732998 13.766257449094823 -20.87705805532849
3687 -12.148074814770636 2.819366137576626 -3.7392744479202933
3686 0.14348442748914586 2.510767235183953 -1.0158118147687396
3688 -9.706267227163858 -2.853369764838671 9.064677903382407
3684 5.2552295953345896 2.2417223946431775 -6.973365596970093
5239 15.320433507054219 -24.00294959979301 2.754593571690905
885 -15.007537668627853 0.7196707609352653 -8.425221286370673
3340 6.176234525360285 -13.685095159822648 -9.641640656420467
3560 -1.3774961447932323 2.9399781708782045 -4.670961993510991
3556 6.6759017303552595 -21.050123480688534 -30.84416042124051
3557 4.061527720782747 2.6692765577984634 -2.2425188942691907
3559 -3.3404887487975063 1.4562744026412193 -10.748501576238699
2746 2.2433710567327028 -11.793029083199572 9.628519243315333
2749 24.284931587287662 -10.3518407048933 11.443838223903283
2748 -6.91414212950953 17.03992136575128 29.074742309922183
148 8.375512657921087 17.386986852113992 0.9427834486422065
147 21.95972130641974 11.823964436739779 7.777571975603436
146 -2.877750762323694 -8.338075985897841 0.19619462970863327
145 2.0985281557979354 8.233040020943122 -1.8986699944781906
3789 6.765939620268471 15.941162806142732 -3.398600705593015
3788 2.4328231712067288 -6.841650559338973 3.263065851197453
2751 0.12952345298426574 19.97483356543088 -38.26344185492688
2750 -3.9780451424934054 -0.6025724673474208 -0.35623843002786654
2747 3.5338729782298306 1.016751237252587 -3.539353662384776
151 31.670523622652063 -2.64769952792197 11.887982172120497
149 -5.197001818995206 7.1072455000039225 9.287716927812758
150 11.10407213258365 -19.86793091154086 13.1640955118595
152 7.35713630282624 1.5179050394063407 -6.4054807628069685
4185 -36.049360636461074 -1.5395829955226654 1.3800613316231738
3438 3.778367673108859 -5.268840295363991 -12.51964600798733
4429 20.172660392502387 -13.053630032359665 -0.6576657933791443
3434 0.7072963934259648 0.12132707963482885 1.73742453687049
5061 9.308306982883572 -8.661857132598604 3.3218518923874703
5062 -27.789784183280794 -16.48058402784205 1.0060685739565771
5060 -9.809455286917323 -8.726598754816617 -5.430769973332255
3101 -2.5757549614791677 -5.990668536406702 4.454245159072813
3102 -24.24724921622928 13.717705345741546 -16.062716688838485
931 12.766869876999666 18.33129192181602 4.233707102458248
936 -46.93698182867606 18.997820280328522 3.5130914920880603
929 0.19815122373061467 7.126433477834287 -1.6115269247761237
5065 13.158553424603998 -19.858007539667994 16.111171956320703
3098 0.8485097420037385 -6.169933588987106 -4.358589345588116
3100 14.781206986275158 -0.6282428653671189 -15.898840081286934
4184 3.3663364858594167 -2.819459106163655 -0.32251320646085163
5059 -25.316586893999975 -15.198704195895335 30.25643043160527
5063 8.06169761257425 -1.7778009677840565 -2.7777953474631376
5064 -3.3706294143465803 1.678542696860764 0.5176948650680969
5066 -3.896082265946211 -2.169319012957226 -3.2303660164673182
3099 -15.339716905906716 -2.0696512646552265 -13.919057469843777
5067 -6.870413890195803 -33.70051511537537 6.617727494117888
3437 4.490614101592409 6.533642195577105 2.7580441403763123
932 -0.023662031393469327 4.372916731331762 7.953357613361941
928 -17.327968789663494 -7.2937381472963985 5.2144858956089895
930 15.420609462826034 8.659983461468888 25.898017576198338
4276 -22.896059354988967 -0.6601186666359822 -9.074994099125316
2151 17.78644111222599 -25.73684535633326 18.701666736285283
3783 15.306183179712406 -20.607199323373656 -3.3693824519385007
2892 -20.410937380866848 -27.680997275292032 -30.35393647763704
153 17.589797444999448 -9.430044752106353 -2.415944153504799
3784 19.069610261286424 0.12908975475920592 -7.217852301770377
387 -27.456588021819456 28.000888078351526 -12.039290431702463
2896 -2.433235935738866 -5.951556650576999 20.481007728715262
2890 -19.5864214929993 -8.96275783309523 0.5900145501564501
2893 -25.0275373744584 -1.2786079701243789 -2.9779957954786442
2895 -2.0179683941398525 3.516697937723488 6.054079762014845
2891 2.365577385141934 -2.528058033899963 -4.545571134430112
2894 -7.086663193282908 -4.408616289328793 -3.250216945681755
2752 12.144173425671177 -4.953262342023772 -16.684599417872477
4434 18.309158627776597 -2.3528408702161014 -18.07166109009352
3968 -2.0257150026972774 4.919039544131909 -2.4509637586793906
3435 18.396131411725957 -15.940658461625388 4.021866378991905
2166 -43.28529260370147 -6.953909089802105 25.53934114872378
2898 2.4936251407412984 3.6569094900386925 -4.3527436957785195
2897 -8.412320516537855 -2.292113696701348 2.6220215359838166
386 4.0499781756760305 -0.14236091515637717 -2.10479686682635
2753 -0.7000633129712485 1.7478305880888632 -0.2673182796263628
3969 1.480940012011091 -5.719826336140345 7.871140483961268
935 2.298277104094766 5.263176874519023 3.4832525453942904
933 -23.50037575876104 12.201366203122427 14.46257010344821
4848 -12.807512846437419 -7.188805725103233 -26.20189418016131
4356 -10.105571434894925 3.927960222305291 6.367061368583538
3103 -1.6986936516860593 13.900457500805636 27.903999682092973
3097 5.465367095873409 0.9624168012331971 -23.787668566568758
2165 -0.4357579479939883 -1.8082417294966384 -2.6228628564204914
5894 -1.9171670031488461 1.7210039672133264 -6.329928297987413
5895 -18.864089302711022 26.82505626984703 -4.788386540136715
2167 1.6276253648927126 11.199722127692851 6.239715260405432
934 0.4186959723674487 -20.069378546095194 -8.780013907957365
3104 0.4019131880717193 3.2742586098885718 -0.37105528031588836
3105 -0.14991432604901056 -5.226835793558615 13.311401463802984
385 9.25872178580921 -26.57148717136315 7.149349047223924
2871 -12.204747733813173 16.695426946671045 -34.84795538903582
2869 -3.5492754902279677 -2.6056508703524246 7.534499841022402
5891 -0.10764133922847627 -4.845774749142833 2.207588673751727
1809 -17.06461273882714 -2.967032157668083 -1.192290189087449
1808 -1.149599259820184 2.6782550838806833 -1.8199378289881063
2754 -6.730828458663908 -12.89510076261864 -33.38575886864167
3537 -44.73448845863355 1.4483937002217595 1.7842755942185138
4179 3.3458245659775603 -1.737068887897641 12.751591370241611
4178 -4.151107618392498 0.03247181337346647 -2.058830817377307
610 5.863910369412886 -0.8998586484452274 34.03873525832269
3562 -0.8720494454018622 -5.184354670226578 -20.59441254652042
5893 -27.0727647234638 17.870286900538865 0.6351892367659344
4850 4.646653779626322 1.9774553950807376 4.610192018812608
3433 7.909415288973392 8.004132640783677 14.272159221081036
3436 -8.715278159080269 -4.783698778079548 -24.009953587077103
1804 27.01325934244976 -29.26282940615496 23.97871398151789
4281 -10.622969353836424 8.384639999258573 9.798190060914985
2162 -1.488374933971236 3.326284008781254 -3.6469543896939256
4278 -7.810407821485171 -38.53369057501999 -1.2139594387076191
4277 -7.358792353125422 5.3687832645985 4.083452285685827
4280 -2.7710839125524585 -4.120028282704959 3.3172933835435483
4282 12.369933049859142 13.608690543784586 9.378802067375934
2870 -5.77605234976535 2.468228074501339 -3.0068789905129165
379 4.530812880153715 -3.396133357569253 -4.2503041580289525
381 -22.271460371538897 -10.630200205263701 -11.621572622704516
384 -11.974034989274523 11.124306886608391 0.6387502536225635
383 2.8536693206509702 -1.5116758656439326 3.0422751477662695
380 1.4832522598623745 5.746941114299908 -2.9275830130838703
382 8.426839563277568 35.13246411036671 -3.594234201126494
4284 -6.812549316933691 -5.224772435833347 -6.792548088500616
5717 1.1329588089917006 -0.6170863249660312 -2.244427499545027
5720 -3.8641756554871693 -7.365966948295594 -0.34167552843123977
5722 3.955827395371383 14.277970501184901 8.85418884769488
5723 0.03984837280700194 4.365749689951342 4.088827623849289
5724 -20.17896718753225 -33.151374041748824 -5.436392760583483
1790 -5.901574905617038 -4.100613510694279 -3.8191890143153517
1787 -0.7817881131647062 0.00800956023529952 -5.51690732631115
1788 -16.394319967652986 7.123913045140088 -6.309640785709818
2864 -10.524924741310368 -0.28925470313975754 -7.131986191386549
1789 -12.801372804894193 6.889352666509571 23.303648455666515
2867 -0.9091758269123221 -2.651103590215096 -1.55451102432789
4283 -5.1046778168138385 -1.9961339338895339 2.1426035405199126
2868 -7.399474805742145 13.701565911329837 -1.3260937856277426
1791 11.913062921073932 -9.065963921295733 18.431740092695357
3941 -4.312752839207286 -0.358384112142212 -1.3273357916882604
3938 -1.0330929867958745 -5.359672593832629 7.873144232468743
3942 6.332252684660878 -21.009460858879248 22.529367961192225
2863 -12.03289917982298 -21.454166519736887 4.474216384866606
5719 -10.366957484535833 13.420569259263365 0.3362487624400952
5718 4.4299543747299825 11.058056340423574 43.28994106136843
3939 1.592982122635564 1.5662540342109932 3.4565333665545803
3940 4.926438031511544 -7.464038040801526 -1.617795879553986
2865 -24.094246763297345 22.791343712384105 24.503914786607613
2866 34.89617044379682 -5.4540250832855515 -30.269141542670805
1786 20.780971042228774 -1.9305090810573338 9.352756200977408
3935 7.507951657887729 7.870615702001304 -0.3039966601591007
5903 -4.807432901133992 -2.0839048640506466 -2.150067884661368
1784 4.022348577352286 2.5870120697691457 3.5798004227437072
1785 24.292433775266392 0.5645346848751358 8.31293697119783
1890 -10.610275995709802 -4.041785732645533 27.09060630916061
5904 27.39174304277599 33.168854043173795 -8.66036253129631
3936 -0.37083498580318763 -0.052134593314406286 -24.861718998763898
3934 -9.04559292239022 21.995713727012294 5.023381689333769
1783 -10.308062221289319 28.79256345249915 -4.562234066442788
4170 4.026815389384022 -31.660492623281964 -11.69974073465241
3937 -30.979504204787595 13.094057659654643 -1.31131213936644
4169 -0.035661852596192214 -4.34906472178692 -3.7462032663730422
1888 -3.9693999134300473 -3.9600081901395168 15.053871147335842
1889 8.94890683339202 4.501378418643682 -1.2777770129262038
1887 -19.192088189628436 -21.34852709116711 30.33376326351245
1041 37.56416337459759 -4.507879284410735 -0.03408816721533338
1336 5.945376573448311 -4.726120655630908 11.788210394896579
5421 19.548408969137647 15.83638614989179 0.26453082636270836
1040 7.129516777474715 4.889580095748424 -4.146492823905665
1042 -4.019525051482167 10.547179760726168 1.384063143161641
5897 -4.088856012839411 -0.9547991088922627 2.344911561307505
5425 -19.29813039936794 -18.534579815162484 -16.69423463926287
5426 8.132495208160101 4.623746624692675 5.212391044460889
5898 20.931589874849855 -1.1553015551854229 8.570162042526276
4172 -2.648240561314591 -6.0847624015354596 4.378715725633503
4174 11.759807352214212 -41.34230567432928 10.081864496789372
1334 1.3603356959749917 0.3003034224728193 3.4346953350536373
1337 -1.2644275061325851 -0.5097938100439344 4.109265941339203
5427 13.534679265935454 22.303628355787886 17.80805111329665
1340 -3.377864915083963 -0.6974521681570806 0.8595215150101638
1341 -17.655493690927344 8.416793882924383 -6.947760625793143
5423 -0.19153376071887154 -4.083092937503362 1.1007621672430887
5900 2.2033245389650826 4.599063908505057 -1.2086545368070096
629 -0.6623880849816616 6.3652479737557055 -3.445780168645875
5901 -11.405478062654652 12.072677192952591 9.445547945186709
622 -2.654633366192933 27.111339658732568 12.135323330072165
5902 -20.492157760018205 21.798042725872058 -11.084690773461208
1333 -21.492260402378697 -9.139227583507312 0.6590968450492695
1335 20.342596686601258 10.010484165412084 -19.18310649067481
5424 -2.5375745692772362 11.966876357317878 2.718738379279335
1886 -0.4582689127708419 5.133364578357832 -4.787705158249115
5892 24.588124129109616 -11.439566471346616 17.83010843490964
5420 7.431751015269801 9.895520151769842 2.81961942515055
4175 0.771493228699537 -0.8823821999534103 -5.665160495568862
5899 7.002803006703392 -8.117071087031762 16.320352024677703
4279 43.42534236884908 -3.1599928059450435 1.6326308118838908
1339 -5.306123917293305 -13.695661413201735 -1.3407092467788757
5716 5.555588119941966 12.523263177995341 -6.157782928566117
2163 15.556615735447032 2.2207108298481346 23.48627414345204
4176 8.845976495858567 29.86965246573962 18.098421906358006
1007 0.8609882749575559 0.928725604808716 0.5115262037516408
1006 -4.7001432855014365 0.6895466976848854 -7.346198396753705
1004 4.868064445917718 0.45294228122351177 -4.9295231073960135
4168 26.581708150402775 6.959757782665592 -31.656208012215373
1338 -3.548956052136163 -6.9126889369681335 -2.5794713199074515
5422 5.554008688543549 7.203777908721681 -3.2867160354859504
5419 5.000534164879344 3.893846958600611 -4.688602303741801
109 -4.889853460562081 -3.5396055507375155 -14.437739386745507
2647 -7.487813395246795 36.291619711038166 12.937774966266332
626 1.4786930843966795 -5.844063241171252 -3.5240809181767148
623 2.7242432779175365 3.229028802672234 -4.833844990897159
625 6.4400254516893725 -1.8133740365943742 9.072081645979027
627 -10.419926160494688 -12.467381377731819 -18.895807167064525
628 4.049532160110416 21.87234299571247 4.91363988447168
4171 -0.5410317218697975 -4.632679579241892 -20.403060948961887
1008 16.446716303663326 -15.006424608125771 1.2495354051308354
5607 7.262914931139578 -21.294226852860668 25.39726827222181
1043 3.728535823051854 -2.0566050696865457 1.614948870965772
1044 -17.784282786314566 16.496371894087293 17.611547684821794
5896 -14.778174665537763 -2.1906013816703145 16.38118410412195
4876 9.118753797488704 12.371514197338476 -13.220303422736428
4764 -2.833064296922414 10.09974257272669 -4.303964364880465
4875 -0.16807823219448842 -6.35239329966374 -20.46546265255022
4878 -1.9588783244616323 18.470281495911443 1.7462286512469716
937 20.787971623236494 2.468427046343872 25.28568928593298
4768 1.2843092488621766 13.26045706315038 -0.1304458775563742
3357 4.2734347015006495 37.840689830596496 9.060162189137916
6144 -9.824053231669323 -10.26245935237 4.243021381613992
6141 -11.051966588959706 30.959209781902754 -3.1681713679671586
1885 1.856394806503748 -13.214877202742027 -7.603448398396805
1883 4.121727607030939 -4.337033792774542 -4.221910533663385
1882 -36.21371326514512 11.549981010582078 -3.886074896168536
711 11.788183491380135 26.805154268111455 6.1737206428782985
710 5.12895728910152 3.6774540496706574 -9.871121376937827
6146 1.71178456590421 5.260510623694921 4.246482567310359
6140 -3.0594713306413457 -0.7443912882739198 3.606423898699654
6139 -11.810493714154676 9.668102778426185 -2.1064722231336894
6142 -13.022092944603964 -44.8084454907098 -8.800166667189938
6143 -1.3932343867325172 1.0273691823332065 -2.288836010980905
6145 9.376290536898564 6.715644343353026 14.983643921867651
6147 20.996918110573315 -35.61630452601723 7.910382603570244
4762 -5.92077194803253 -2.0745808033330286 7.239139074457137
2315 4.400912662244518 5.767099955806923 -6.587265573208816
1884 15.986238742680744 -17.386157604340116 -34.01961752977101
4334 2.8789350952276096 -0.026377524756627163 -5.073489023102441
4763 -2.0196088127761347 1.9725721842430495 4.184871915422269
4765 -19.457587864689575 9.932908241526901 3.2197674707464667
4545 -32.333890482013125 -13.457717705667378 -10.09092609415159
4544 -1.0178547477063198 -1.327649500815433 5.9282742777974375
4335 3.998394029797414 -1.4803832496166127 29.197566024941377
3897 21.095831505318714 7.244830188070804 10.31682828489699
2321 1.6027100119070858 -6.455051518208538 0.44730649791756044
2320 10.379443176059093 -9.312267419093665 11.453179226706006
2318 10.852887625611826 -0.6490507041702849 0.4761308941228485
2322 -7.732169519206655 -3.5187687811672266 -28.17212204045416
2314 6.127814661978648 5.447384155206703 -10.615608473667903
4766 -2.918676246296281 -1.7561927596974256 -0.8203906373460222
2317 -18.49313470580142 -5.9113094135727575 12.025496723263318
2316 27.611090085258464 9.430893153579218 -8.113318612388412
4872 -28.32323103041494 8.364467454360057 0.3809648916141744
707 2.287584054734566 1.4600766233859148 5.649208220830482
938 5.041251441896003 -0.9282605476785394 7.4415712471196045
4332 4.515273325204159 15.717382706895128 -19.619660990360156
4874 -3.5668323269557094 4.072967907987111 -1.701432278636806
3356 -5.021236965069976 1.360410253643349 -3.5705951452629145
4331 -3.417135492286819 -1.0839591809220475 -0.39596091944085776
4337 2.7103596010529833 -2.7130634954890698 -5.942083851213285
4877 2.745333038307786 7.213367454894843 -3.3706066431155546
3925 20.386662204437492 15.176297520613122 9.254467670346996
3928 6.000834536994853 9.348299823730427 -4.054966581680861
5247 -12.440202944351766 -17.627908999827323 -5.804428787659791
4338 -15.17701322969276 9.554365817008602 -10.930056779884545
4336 -6.534533811654009 24.939472824855322 -0.6235423088929484
5246 -2.2348879053669592 -1.8667408136718062 -1.2150751420831412
940 16.0423508719843 -4.233782804185494 2.544858327623011
4871 5.338790552446701 -1.1744033482411875 -11.449862845516067
3932 -0.5212120411852806 1.7539232392976876 -1.8540844214641397
939 -16.305627693145762 14.348265787145792 -31.206187288658374
3926 -1.6248330845679813 -0.0014489766967049485 -6.743110975046618
3890 -1.3613834752238931 5.904453787872053 3.7928655683675205
4873 -17.582615146492124 9.531755047794446 12.478048835941312
3933 10.884798159229966 8.752163524142961 -7.241609509398961
3889 13.48808200460414 6.6830080053747825 19.130246079500374
3929 -9.286655352984933 -12.871520183089512 4.083648213169391
6088 9.97238618287713 -14.411350104862148 14.754325546995654
4173 8.509846728725622 6.032592502966037 1.4940629361655098
4870 2.3216416669446773 -19.065788959215563 7.679040988641804
709 -6.841974439356331 21.73649397911753 15.417629466024362
6085 -0.51158022701489 20.69319380077733 14.156781188275888
704 -7.839888570337375 -8.850233217692717 -10.416954543721632
6086 -9.338761002311465 -0.45617334811792576 -2.847764847464013
706 -8.47873609726186 51.24803386061338 -15.375333714864281
703 5.201381819682484 10.125792552768464 -3.1541820803253104
3891 7.744948756273241 19.670219360538372 -17.619365507706522
4330 30.25661455629184 -2.1052755834646093 24.846598012866746
4542 3.8549653315963797 -6.656149074440082 -20.77996648332655
5691 0.3694820181115265 34.71738420124367 23.067059543107234
5694 23.214855538828562 9.984060519770537 10.60871705188613
3892 -1.0499676187572127 -27.02502289112472 -13.623633540618815
4968 -14.760199259915394 18.767878657805216 -0.2831976790848035
5601 2.74050447570578 3.973196264805896 2.680316202637406
116 0.8458188078214747 -4.921700868799546 -1.9527490455916596
117 -10.432493165331952 34.65524909174517 17.757752723389693
1036 7.409820591841686 -8.47573546657153 -24.991828410555012
708 -6.62314555725261 3.839212351894778 -27.74865334990098
112 8.340507653722204 1.2120074482777023 -7.845645716421607
115 4.997451305254499 29.78244275630957 -24.736540782719086
113 6.792219442390462 -3.9930684941755765 -3.50766329365427
6091 13.103598875251441 -8.570816830872428 -1.7846823858746959
111 -3.69214771100074 -11.662572242454534 15.802819417927466
110 -1.2232082240405597 -4.745833067377182 -8.864927953321017
4333 14.0808459865019 -20.156565116107274 16.90953732958344
4541 -0.033416060517521544 -3.915280286527296 3.9504317706293457
5690 7.656271033158023 3.976108617212602 -3.5445519575063216
3895 4.8050145380325 7.419011929845753 -1.918439245253771
3887 -2.034708130632509 0.9147715368225102 3.1742191622248113
979 22.15345156605491 4.562072179643833 23.1477914714697
978 -16.057549101908005 41.34477091293994 1.1235432269914154
3886 -23.061682945850634 12.375375574048187 23.94910503952508
712 -13.619964026471274 24.06767092305783 -16.757965506111685
714 -6.473190648502771 -7.528365685335732 -7.3711361391158015
1633 3.521433574625126 -12.663763176756715 1.0605072893801026
1668 13.825052355176556 44.35575686373696 -10.562842731986207
1632 -17.091271657650484 26.703471735775313 24.369817980565568
1631 3.13605046275897 5.087307285876501 5.577662343521066
3880 11.476220235200318 -23.88332861863294 -0.5563548307769685
1224 45.98513279120146 4.998613262665002 35.48824939501431
3280 -10.20288333118517 7.825154148278175 -5.519254775949803
3278 -1.5629982339659803 2.4068077271141552 -1.5947789050665038
3277 10.09827660788931 -5.1195786155667715 19.942408478684765
3279 16.42862972226491 -15.324528482507105 10.875867264715389
3283 11.242224059243153 23.46409015098028 3.549301977784766
3281 5.8958281299007425 2.8428792988034997 -0.43743015115445566
3282 -1.3398203822672594 -3.4460690947994768 -6.17531932714041
3284 -2.565009886283509 -7.805300365141164 -1.5561036356876958
3285 -0.38351153361779144 4.568356380057102 44.8311736296328
5966 -3.696729164475011 3.7329381796318883 -5.228867777075498
1673 1.7965400737955843 -1.8890130645361096 -4.304548938461784
1674 19.47843545934984 10.099876816911593 -34.65969615645477
1670 1.0574773916983502 -2.129903163555661 5.992781137272092
5963 1.4617569851803227 3.815782583107918 -2.1529126455851424
5965 -28.52218895685051 6.315888305342054 -4.460418904279549
5962 7.175283841069505 -20.958300210116448 11.796850233502512
3705 -11.633017473628438 -16.301236470738328 -0.7734675263742541
5908 -17.0849764866781 -0.17754297605946234 14.452004482684245
5906 2.9888957042369233 5.229523447549482 -5.310941669750199
5960 0.06966535474002458 2.812934750778979 6.772226226821833
5961 16.423097620903423 22.45534740576927 10.595839835188203
3703 12.23139549494724 15.523342649009852 20.610938832022832
3706 -5.3198242562769655 -5.867957459461696 -15.758555716139773
3701 -1.2038717763021909 3.336390432402035 5.8315212139203405
3704 -2.7917229157748067 2.101138880365732 0.8132295632686262
1634 5.849934158100325 -0.3071449711315683 9.28822690903158
5959 -6.404485603007288 -15.650924604258037 7.390387776456416
3702 0.26374824589428864 31.469847392802432 -41.792736154101966
3707 -2.711526276901748 3.2365840347029327 0.14800633770644564
1637 -12.85065256760427 5.306672203608445 2.427655787774247
5910 -10.39211034725623 2.0027579777265125 22.937356411491713
5905 3.5466788744610973 0.04634395912369039 -12.879166419385394
5911 -2.403697104261769 -8.203889681426531 -23.779438250152914
5909 -4.652633613062532 -4.962956940480257 0.488828127172954
1638 4.975522197345792 31.64296938855352 23.00537187726951
3853 12.360678536844121 -19.577734922312274 -4.1973597388385215
3700 7.5578980117163415 -1.6155493066751831 20.40426012548249
3857 5.689731211932172 0.941919392111129 -1.2673524219541847
1223 1.1030360143555429 -3.282246243658666 7.992015695719044
1630 58.046169629644034 -10.64075965401624 6.379108143588835
3859 -1.4528919197261787 10.168854794295852 -39.894424645677844
670 4.653286450206249 3.8393679707906743 15.153045393505135
1222 -0.5526999856268713 3.2395153805898316 -26.811557931198585
3884 -3.379012302473482 -1.8718300375780588 6.94861599781313
669 -20.509467894786408 0.5457788975486301 -27.940969026681962
668 -3.315637895163274 7.381557846847779 -3.533799892334207
5967 25.359530931196517 3.452083914260451 12.562639147930533
5964 -3.2165249250411407 11.082961726999104 -11.015712754538542
667 -5.907016792028577 -9.348667255384619 -10.896896961231239
3858 4.300914785918633 -20.15904977183686 -2.579254836500448
5634 9.806067303604179 -2.849573363520525 -10.501698116311344
5050 21.229854710377985 9.421493444052253 4.17997315791745
3854 -13.670346202683737 -12.541121540337521 1.7693179770202105
3855 -14.554013677769817 5.163961892373112 27.12691566911165
1220 0.25164391062492353 -0.9780029160069528 -1.172954228837528
2269 -1.7329138824424715 25.20494831891702 26.679371304843713
3888 -6.205124297864001 -26.094841145766214 9.419241970302824
3885 20.18155010452286 -17.244527052845502 21.047816807555364
5750 -0.6456310826866917 6.918650301859208 -0.8434081211289374
5052 -8.498711394853414 0.44165581109613705 -19.82290593882038
5751 8.244065375364226 -15.2272692961251 -12.064952342266885
474 -29.144092215744905 2.8758912587671324 4.0712226547475945
473 6.332372946007359 7.09001428688525 -8.148002099069801
469 8.52575357718152 18.838265897444774 -8.266287040843604
1672 -37.63211970743834 -8.590780908062165 -13.823512962851012
1219 -6.408294904868915 3.305590012873943 -4.482776426002276
1217 -0.810995671622128 -4.4277690244158805 -6.482057890576826
1216 18.756424158897815 -27.21151243241582 3.5220863949612577
2272 1.122401400511184 35.1919306050309 22.02027030418421
671 -5.4240263645907705 1.8069440469301772 -10.660327731168254
5633 0.03809087623192088 4.851432487472716 -1.8699167170182294
3860 -2.4663487359644476 -3.2595770384372913 1.5353967952216325
674 -5.209054153438285 0.1156319866786764 -4.006814969340573
3861 8.318857239311964 -17.427742067108877 12.204993291750917
675 1.623996563694707 7.453433797959607 3.4906218692124105
673 -12.239008086475632 8.680053805665576 -3.051212253675004
672 -0.6653650403897757 21.791487457860196 19.23631930591758
1666 18.950447198484397 14.87526095984905 -12.862812562989507
476 1.5879069459804498 -2.082965684494213 7.719271033671167
5630 3.9672725213109237 0.7611487348364038 -4.37111843489374
1667 -4.594737093179872 -3.4617213594302765 -0.03064239094971298
1671 22.319278643426408 13.842259679827881 1.5796765257849303
477 31.04938022676879 -6.154985851793994 -18.844764000423027
2079 10.918333865765286 -1.380306827284375 3.1270466120353304
1221 -20.740659714565435 15.476440984329706 -7.618776284007199
3385 9.11449501452199 3.0777675337885553 28.203170889115984
4437 -1.6656304755022833 -8.94796530205013 -15.212434192839382
4432 19.093970932249768 17.473884250834885 30.093967433256864
4573 -20.91183466736648 -32.82616293594271 6.718828498435711
4430 2.754000778400636 -1.0579658276770778 3.388671824306543
4433 2.361360042563342 -0.41360163678910605 -2.1254822564873193
2047 52.180719696896745 0.10570713150935403 22.502410010554808
2045 2.288273900761852 -3.263750803314483 -1.3453590862989706
2046 16.16632740679072 -10.110936945811025 -11.538958671814337
2044 -25.86935529039597 1.1695760738373857 24.230615514785008
4436 -7.607501934571455 7.141165972216758 -7.59695153179536
4435 -15.166607982129344 -3.5258078691318415 3.6745943739110474
4575 -8.73911266919373 -54.95987212975218 -9.420017200973067
3534 -6.601347103162519 -0.6165809303062422 -9.917709263425984
3532 -20.30713152823977 27.107015368213055 -27.435317398631376
4576 -0.19309044465354774 15.034334882494722 -14.864433771995492
4581 10.361238961394077 4.437059391176781 0.23344560008973372
4574 -2.8347127269158254 2.9519779587420825 5.754885590511263
3536 -0.021686917663119434 -4.279843843094908 -4.7474911013681504
4578 -16.52619016731537 15.20940411179728 -20.59413156587782
4577 6.474926992677904 -0.9967921428151605 -7.754722318622987
4579 -23.129459455254974 19.838000188804735 9.704963567932387
3531 16.014533863465193 -8.103733610193036 20.135883458435522
4580 -3.1588454738463287 -4.09798125380512 -5.383683594460052
3530 -1.7986493436666384 -7.98817783553998 -1.6928442544565574
3529 2.9732291177221946 -23.40491067535116 2.846534034755893
3533 -1.3199650246093182 -4.906579837942764 -6.5223133663171
3535 20.05984049490533 -44.60070332863818 27.059370238929336
745 -8.325658154192523 27.111543066002252 17.508241849540795
5925 -16.253829443047852 -7.121659906866402 13.624006679991643
5924 5.312765127572575 -2.927539240993361 -5.726835970048609
5927 1.2896647493376614 2.6557499902643538 0.1433550958350417
5929 -11.086870050987933 -10.946867923031165 15.218327243775247
5926 48.51289134992913 11.348552353268044 -24.869429570900138
5923 11.262198218380753 5.6881988143356335 -21.59331528608425
5930 -0.2927909539301312 2.4963269001578388 2.6330587424946383
5928 -19.23512374454378 8.998818837010505 -0.20416150808629843
5931 18.095786575637433 -15.310710367541688 -2.1228832341233863
2421 -0.7414286467655302 -9.253436036113662 29.516425114667886
2417 4.201107542776861 8.053149109828828 -5.232548730966133
2602 17.41719863785791 -5.966361560043689 -30.821502468476563
2420 5.123944446431033 6.797930189259905 -1.5085665733020792
743 4.354388481432254 -0.8380529210541899 5.36250751438597
747 0.08514252383681002 4.701473387746104 16.543596203612125
2603 3.9481937264566813 -1.3661112393444017 1.414523737839496
2605 5.084603015601235 3.13916304246149 7.153258422528393
6290 0.9056876206826985 -0.5369652254679215 3.700436084450768
6291 -6.43696258157502 -5.109272983883704 10.145564273645777
2606 -0.663900981296226 3.831712355665118 -14.58062050905739
2608 -5.619389061813133 -21.937365093831215 -30.593696913053865
2607 -10.027308631735744 -13.567846107563213 12.499857240373329
2419 -8.288937836849243 -8.193941165194719 1.712945534367027
2418 28.339432295614785 2.756080170099795 -6.242035050506765
746 7.408437125633547 -7.642928239888619 -0.9240565428187388
744 2.500242522179927 22.297299405729422 -21.82881257696639
2414 5.99407953633444 2.010558391690446 1.510524224506792
3963 20.307501232327763 -17.475248610209757 -14.50455270775392
3962 10.442062470488878 -0.5792304200908968 -2.861481036232866
3965 -5.649719427477054 3.0441885823018717 -5.181529086937166
3966 -2.7662720647562753 -3.112041804529161 -25.134844231431867
2413 27.919870098574606 0.7050169304810954 -15.195459276853597
2604 2.4890362983715297 -0.33064584699145494 11.572422421683926
3967 0.10550020940708496 -18.95134693805585 -23.179217124853103
5166 27.965366642720547 12.235189505856937 19.855273019489324
3964 27.399375778724103 -10.476355658745488 15.584676494169491
3961 15.828567812781907 9.393923448998923 11.6160481432597
5163 3.764313733275048 -12.947786475196041 -18.04785870614348
2415 -4.43244458997534 -4.097945721552336 20.77088782826312
6183 1.680759920735234 -12.63440935726621 3.5156975637011225
6180 5.886075664581493 -36.61712361710913 -5.696923744425533
5158 33.870560264033706 -15.520685325418311 -18.373596669928553
5159 0.4005247848450696 3.1191840811506357 5.274401128573167
5160 -26.03309456408065 -5.134144579448652 9.474069922139714
3058 -12.253257679939075 -11.710806446746897 23.432088838422164
6286 -31.26072530291924 16.814610601351955 14.857923289814627
6181 -3.5393418491065174 9.19877647859836 -7.558357256000993
2416 -16.978414010080098 -31.79940299122643 -10.998482037627518
6179 1.2654913485295471 7.616744253569864 -3.056213151036596
6176 -9.087872057231753 -0.9690922416917643 1.078674546851496
6175 -0.3621404198236555 1.4195631594578375 25.701551312836475
6177 12.723859209534126 -15.402083244212436 5.050805971422627
6182 -1.1983684765652525 3.7233106124891435 1.8460263958879612
527 -8.77025319173122 -0.486594636134433 3.5626986612123486
528 -12.052469060868464 17.647458496348094 0.39255906711133604
530 -8.995742033493634 -1.6301606621406497 3.7406771216004593
3219 0.8946958905658112 6.417990164670681 -4.449086550368538
4431 2.156610760597728 18.18969556127473 11.643378210871278
742 31.036569068089815 19.789709361512774 35.63019122669404
1879 -4.693615726228924 -23.604096941133285 -20.2529599282936
1881 -12.973548278243117 -4.542150065866691 -2.1178401481066857
1878 -15.326672088523706 -9.235031456200947 20.09576443803449
1877 -0.8856941568160989 6.380036253215087 5.257577063947222
531 -1.9325639813342492 19.970603747708438 -7.908929169703957
6178 -13.695063723313316 3.7666683186884553 -2.4346645020126085
1258 3.877067763528342 0.19748408724266872 -10.796664592198965
3056 0.9920753700193039 4.517883153248621 -3.4228124520432286
5887 -39.81917221013479 -4.297870910040124 -4.04839462068717
5888 -2.1325267506745336 0.35634603689539923 1.921699735157095
740 -1.6020134455553374 8.132934141397486 7.485401657530595
1880 -0.9210613550199823 0.8594170258339949 4.436807791605623
583 -2.8773703939289765 4.785547247908435 -0.1469229384395025
5889 -25.9071414259827 -33.440682947973 -29.646822542048692
2609 6.025385528984033 -0.16373019281874113 -1.8992103082496128
2610 -11.0493115687329 -4.1082331341273575 -7.61484732153346
642 18.498739019499325 21.870018081013896 -7.0777750353326745
4635 6.5107036352976 3.7782210488861137 1.0057953993533453
2164 19.035991236186497 -9.241029669364206 26.925875032664297
5162 3.505548769898042 2.0621894986981966 -2.982914770110408
5165 -4.006767586594935 3.5116128895612255 -2.220787999017506
5161 4.806422393086368 24.17543895625993 -0.39278610501109973
2308 -18.42184584958949 -1.6146277130572382 8.52951824984757
2307 -9.692938725146085 33.939542446079194 -8.765225479617108
5164 -1.9401324670669848 -4.729056033603218 -3.88825144055958
6289 11.084392658447053 -15.714699619490332 17.437415918864485
6283 -22.155756423016456 -9.55439195299703 0.3966633473228813
6284 0.9115698813343136 -3.283694802294762 -4.241445581331724
3215 1.6242560353460187 10.52776706912646 -5.948745906566922
3214 -13.166680165848526 15.616629207754045 11.689553350900052
6288 -6.427517672361927 -20.869551294492123 20.046228958456144
6287 7.113249824655911 3.7702212863194853 -1.1347440744265325
3216 -7.012671552562996 15.76161944800338 24.690787128082135
2313 -3.9440402875351808 -15.781725882015017 -23.800794399643667
2709 -13.4284604242874 16.198313387028694 -0.8194899031322408
2708 7.533426960474704 2.388487124926996 0.005132024130207771
2042 -5.054708159867914 1.7400187055172063 2.7951603250568557
2043 22.735822533517478 12.3604680134803 -9.333800572694084
3681 15.985013403379671 -1.4745896858016028 -10.125286541878253
3680 0.6666988844554734 -6.319263794248928 -2.4212417400074
3677 3.651217970357059 -0.5062874151478257 -5.905026124974971
3674 -2.4148330065724286 -3.0413259310928162 1.6170597875553991
3675 6.676226532570518 1.5316218842331415 -7.234775910195656
3673 -5.17874269474918 -15.443518825390454 13.544915680679516
2312 -1.6566496839397322 -2.946223237399519 -2.799630088872638
3678 4.455170530680455 8.28573350712442 3.5188735066240127
3676 -26.130096444761303 7.906182855610749 10.825195068447906
3679 -0.008043220523728505 -1.9150505809360738 -24.24115986859999
2704 -12.658333953289235 -17.263549212328996 -3.7870615747697496
2703 -8.907936859886716 -5.445449807379312 -19.04565312953048
2705 5.690516870224611 0.36043066931764556 4.479602054267014
2702 8.306040426348435 -6.694476176223031 -4.343171320296906
2706 -21.544681210055717 20.128675333994565 -10.741723103534223
2826 7.017410705359775 -7.839862068630106 -7.762142909084952
2707 13.993644898222255 10.62164635220339 -3.772683185368814
2309 -0.5804733209467652 0.7733198884016057 2.62865256191213
2310 1.2808439224636585 -19.704248050363088 9.558702733394531
2311 23.17323786023673 15.88361420807235 2.67262616214504
2306 -1.1164061285801143 -3.436257240835022 -7.038481885676623
2039 -4.440200609842172 -0.25863917794009716 -3.71838452163393
2040 0.9047591409303322 -5.322544679562866 24.45653127242151
2825 -4.576584730835913 -5.350741592339175 3.7767218527269346
2036 -0.6753371606495293 6.416984513523388 -5.068379009503367
2035 -19.3858084016916 -1.6698292002485522 3.9102480387347556
2037 -12.358321789298273 -33.149814494940905 16.051178380068016
2701 3.862626839570055 -5.931077761378353 23.30793466734652
4608 17.747086102703328 14.85052337038137 24.09397629103634
4604 -4.861737986945244 -0.3864444779716585 0.6839390096603181
4792 -10.243889546063182 -0.8219726169024333 12.988696597126436
6189 -19.698170024189253 -28.968580271179245 -1.9761638957149457
6188 1.3165892660239553 3.022183368237092 5.023084783916076
5763 -38.33992101333689 -20.206657335293457 36.99433006760235
4607 2.261518852471003 -3.8772638111440156 -3.6290909382264656
2041 -7.0150622895486325 -14.271304859852659 -36.24056333996426
2038 -12.083172049777144 11.851642863528188 -18.077457601293727
2822 -5.46009683233538 1.694652062391613 -5.6743032498672115
2824 -21.369075509770113 -21.48711742221508 -1.484836386189599
4605 6.885453615790032 -4.050812142906051 -2.457669593067542
2823 13.302988241948059 -25.35424513757723 17.33509219563069
3834 7.37562856675922 -0.158296791226226 7.2492437108826895
1037 7.54896768639516 -0.326180841604962 -9.117621071170792
1039 11.448941035585303 -6.327979655570737 12.047970375753719
6285 -5.9147564644647685 -0.6536827571973365 -7.036478567685317
5831 1.1285557728207056 -3.7763350892150247 4.974171414137704
4233 10.293403958782747 12.342625717913219 -9.613649196665563
6191 2.6835761843005486 2.1771275959429643 3.443666589696556
114 33.28984987546934 -2.831258650561138 -18.802309292767603
4603 -0.695886480233072 -4.948825225594967 -20.761057063119587
4600 11.89794635610002 -4.776158427271277 -0.2178633535672852
4601 -0.29085116281847817 1.1141873497626376 4.196340951465776
1067 0.7358875013589781 -5.880292310104807 -0.873044778261721
1068 -8.766208520587922 26.584976748418626 -1.3940557301663374
5832 17.704005020891667 -8.188894334230882 -19.956886634683233
523 -6.813505566515111 7.784763964164838 -2.921853516631426
1090 -13.43093394958497 -0.07585166534222289 6.474882903464667
1065 21.848309904933025 -11.122070482484656 35.657322096782735
6187 -25.331387785253106 9.712493871015601 -15.07377761512865
6185 8.621124650031014 -2.348111973503382 14.84351070697591
6186 -0.7173116389822858 -0.3064870858886404 11.455660056073352
6184 17.8757265295692 -8.773546496153301 -7.452990498272135
4360 24.493912843722466 26.320042540416505 17.136886662246248
4606 -2.4122856553491463 -17.63155553936157 6.691211904993185
1063 -2.751629913068406 2.6395726638267543 -5.518499507538446
526 9.352825878321779 14.793980915275748 -11.150823643194974
2305 0.6889006230073209 -2.551940305697005 -12.190172117124725
6190 7.254345393628096 -23.58257698074115 7.134335643476152
6192 24.942626892638923 -5.700277441129321 20.062258628943294
5765 3.3362468542316432 4.44928934918128 1.084332971378335
4365 -13.204525754564871 -7.106766061312249 -19.97630480469899
4364 0.670092770295584 -4.653591429196735 1.5431004855063937
5767 -29.355476903853294 -12.512023136006661 -17.33686612772588
5768 0.1353565489883355 4.236919002625621 -0.1840783093407477
3997 11.068283875799168 -3.2205225307075116 -8.763365457658859
4000 16.244407957577184 16.847653452085158 -2.030138365066958
4361 6.4302171029169415 -0.11154821226224766 -1.1108222102483072
4357 6.634405973428446 7.346901733695401 6.601326708502872
4358 -1.6695786350602357 0.5806961770177093 3.7250967569677873
4359 8.973163167941062 -19.44359369255609 3.136817341207419
3882 9.191129281750683 10.819604475273792 -1.5824232989956803
3881 4.335055291079407 0.873509265900414 -9.042054868931954
2270 0.6935671226303379 -15.441014930891766 -2.317227971802324
1038 14.875476604614844 30.066143841921434 -14.901854826412885
5761 18.847222856292056 -22.773761909729153 -6.8930863097075825
4232 3.028868283096966 3.2929881810806094 1.3671144920200844
4234 2.5662917437734913 -11.023562225962097 -6.499671918442425
4231 19.98725481347317 -11.802144919112642 12.247545290539483
5762 -0.44975496113361835 3.5325189149598737 0.7485995326105442
5764 9.289704275199016 -8.083605791002277 -3.8658593972315156
6087 -3.1230176942660584 -5.850833343745135 -17.444565898289188
3883 6.156197843342631 7.2572751450131445 -4.889689978220735
5051 -1.6731740748140702 -5.657797914219958 -5.628791041051946
1342 2.6151173385482345 -19.30858842797056 12.214910513439987
1344 -0.4451348962140428 1.0739077554202578 21.760928060421445
3486 28.045933647413104 10.594097059865495 -10.949907064921984
4238 0.9148174765229836 -3.5356632774943004 -2.7208748258799367
6093 8.242273036599896 3.6838680537000985 -9.67083914936872
705 3.7789057947141615 11.957763443197955 -19.735314491571845
6090 15.314252560082107 17.153590363611443 -29.623602511702337
5053 11.155818544308419 -7.019322784597492 11.079960409377115
4239 -12.309706171590792 -14.125919459589458 11.090622596124877
3487 14.571808799925394 12.45462625122018 -28.970122700287906
3484 -4.59229353618402 -9.421264061690062 -0.43300615564986555
3485 -3.6305395600571355 0.702171281343661 8.88306872171565
5054 0.845374467073065 0.7982101706197136 4.9185131315956525
5056 11.545523115672742 22.570480315284332 -17.405586058808677
1972 16.616609250367528 -5.275149858118046 -25.998629891402075
1978 10.498217673056836 14.410317268757634 12.024034429839805
1974 16.234870532826548 4.646508695082747 5.392099678383466
1973 2.6505527804309494 -0.4309130978370784 4.691749574375123
1980 -6.1328897697272895 9.5297791886763 6.464698509865847
1979 1.7539696303800565 -7.656068494993769 1.341605656718694
2277 -24.288836449521177 -6.199472039418184 -4.837312026077132
2275 -0.7606607248899935 -0.2720783522884461 -5.667610966333939
5057 5.351175216455445 1.9056194788282543 0.8683236298299344
5058 -18.578901619112564 -8.876416504872434 -17.75437770353101
2276 1.488092655281433 2.420036843760795 -0.20862691260029564
1977 -15.622638825560559 3.2905946352222695 -6.771827986543777
1976 -1.4143809685344815 -0.4056744345884944 8.78081967068577
3489 -5.95630801422123 -9.748610380273787 -13.823479371711203
3490 22.256586031436264 10.354328798533146 -13.201910286601747
3492 9.748215459645522 -5.664289676659736 -5.165104801530845
3491 2.620183708692484 3.88731569751927 -1.2515045751631495
3488 -7.8725940626862885 -7.196640168513445 2.223419006479454
5318 -5.679837317887723 -4.946817594004052 0.38306690365308976
5319 -17.447244728627748 -21.420539305281462 -10.32993709153597
6092 6.0766297971993914 -6.295357971959135 3.742611229445424
2273 -3.4962305806023077 -1.7330360030287528 -1.7651755517131213
2274 11.109434897527281 -19.12446217740929 -33.31433781775809
1440 -25.797147608658822 -6.801730611031553 7.163064739245498
6089 -0.25667705127736135 -1.6665008118701863 -1.7800359900518352
5315 -0.08787614801145952 2.203183309011368 -2.046226132286169
1975 -8.322964446328811 -0.13000861442626788 -4.9461296617706045
5115 3.5844588091149365 -14.233391557272904 4.209336715946221
5055 27.13600530491109 11.856446627589055 -13.462764749852841
5117 3.6302895035732945 -0.7779812912493381 7.970731577878216
1436 -6.10909132223825 -1.4548241621836535 5.58157695397098
5119 -3.0337783781849406 5.4874880561934365 -5.04484272995221
4957 -19.64713313688732 24.187091570252544 21.535811907749046
5118 29.28527115234573 3.438416147516937 -18.270542512820537
1437 -8.210311281344191 14.864578908783434 -19.57470742402472
2493 -19.798565372103898 -24.80550547397433 6.865249275381477
1349 -3.1300925416100083 1.494363018277268 -0.6326231163621289
4602 -20.086602427694736 17.15796265148725 1.356255067436434
1343 -0.566439133070823 -7.20501704345964 -2.1313487250032312
5312 0.39832151654370235 6.229724646206033 0.14205488527720922
5311 -4.1431106920416525 -3.5145631425964936 -16.323259272664686
5314 -13.569107205009768 5.485150078287976 15.46988012541621
1346 -3.803164107027485 -4.721082200878721 1.5622695180978368
1432 11.92659005675139 6.649253058595074 6.317893616552897
4955 -1.7851095907492263 -3.0616329883934896 -3.2092186860204874
4953 -8.317752590098882 22.155234983361947 12.882120153474263
2492 -9.038371454726361 2.0714479147560048 -2.1902874587687298
1348 -13.96649325670697 12.777110321732074 40.17837738227364
4959 -24.73576740614167 2.356270029989711 -25.691856107318554
1439 -0.5376810998822841 -3.4715295290806343 -3.5716790547295276
4952 2.893107236053064 -0.9691220413445316 -0.6346498590882276
4958 3.8213936226668754 -2.547866875119491 2.168873517837585
1438 -13.401067224977018 0.7416346585187071 -0.6877866023271387
4954 8.211077021788169 5.517265590508793 6.344395373051763
3082 -24.991947004335614 0.9401420932847359 0.9646348591472564
4236 4.587099884498372 -6.325632680059449 13.402143519622326
5317 -6.711255279517483 0.01213041377343544 -46.33712297246477
1433 -1.8564968026316393 5.249237035802091 -3.8570193218282114
1434 2.5779371815929832 33.37548633034293 5.819641136113083
2491 -4.86758018539745 2.0023693462007475 13.495655023019307
2489 -5.236182107926405 -7.71312521728684 -2.0962870988299303
5113 -5.990076254516185 -15.198416114664273 -4.402980405615046
5114 2.987774040337046 -0.07662784673909383 -0.3400231277176392
1350 -6.460862326095112 5.699563233711085 21.682979799883903
5120 0.5651020750514788 -8.760050235045124 2.882297966207613
1347 -13.72239265546554 -7.923429758293529 12.51203352625473
1435 -3.4696145721788483 -14.241505426761812 -4.554082505442186
4327 14.02335856009953 8.861156334259599 -16.37748594583596
5313 -24.74886121210151 4.424927530334795 3.607750850169578
5766 24.67075787642031 -24.96678636775231 20.661318695765377
4836 17.597662365229688 -4.051570176965224 15.04733515826096
3856 -6.808436659552497 -8.36824967607156 11.95169342307449
470 3.0106690771257987 2.5419977300004772 -0.826580870719169
472 4.981565889783709 11.014330547101558 15.15894418811428
5632 28.22701805363171 -17.919966494647046 34.99460346077317
3708 8.348338537554286 -1.5285062577888797 -26.156576609000084
4785 6.060375055935131 5.66664451053471 3.1603760466010913
4782 5.121734229392535 18.14833588341537 -16.04278890986694
4788 -10.729347314279972 30.967934802423567 -26.599283550931162
4780 -12.552222228060515 8.593629499889653 -8.132705753955026
4783 12.772352408550075 -19.433916330073362 27.12367105148513
4781 1.3890704142129962 -4.988260212173344 -2.8151134569772918
4786 -2.871227828282232 -2.274452173469827 5.847334465281427
4784 -4.029716493992717 -4.02144783302716 1.6745387821427529
4787 1.3317882713992582 5.888956261655137 5.037760492192549
4075 -14.5625884943611 7.730170057223265 -14.622693945425903
4804 23.438365096368265 -2.232376445185229 -3.6076523605489066
4802 -0.3229627387578563 4.60353477825922 -3.385466356606387
4803 1.3898943973950482 4.989179303210261 -6.064014447504478
4801 11.829656301769935 -14.533647924993266 19.469824260026677
4798 7.1325611750838 2.9023476069983145 9.83616999622456
4799 -0.9746305445902064 -6.479501185166414 1.0682629479391987
4800 21.36275029476893 -12.634254370310153 13.09955743859527
2448 -2.5885154840821016 -3.6235793425665017 18.39079165406759
1109 -3.7015518362623716 6.721106749050967 -5.628956746874339
1110 -8.851750855669096 14.428287088904932 -8.76211036438527
4672 -7.540229110214002 -42.29452207423436 -12.160936772581925
4673 -4.188345299323008 1.2312635552360356 -1.3050825424274632
471 -10.716781056962922 6.9421569781143555 -11.580957305133587
4675 7.72694038733338 -3.1508756543239964 19.444490240578425
4679 5.997946558617286 3.5216956823959173 -4.417278525504089
1108 -11.577720161730344 -1.356797213692954 3.618805515598811
1111 -20.362347393576506 9.349335562992493 13.944322726821104
4676 -3.4568739037434524 -1.9121393202405825 3.0672457948414467
1112 -1.4611373097439768 -6.221827383598861 -1.5584526608065015
1115 -5.136925793292299 3.399292536492087 -1.8820855146770687
4674 -8.203681125764442 -23.63208545102422 -2.1930835445833647
4678 0.7792485769514976 1.6476079729642177 -20.68981384285716
4677 -7.486779150152706 14.494891283479635 -7.062924338190745
5567 -2.1076407167171123 -1.5331671427433131 2.618910251310269
4613 2.0665681714557245 -1.7051850249933778 0.4124742036237589
5564 -0.17087850259202236 1.9732819806195472 -4.830694652321486
3038 -3.511742442943763 -3.8889608455767424 -4.606798731492991
5565 2.6647168532207304 -15.365145111390289 16.82954615215168
3036 9.881659747752243 15.170941398218972 11.334848166667319
3041 -3.35741371462364 -2.4234304853805635 5.249697177974789
4616 5.089101632661455 3.801830717302328 10.281134799715911
4617 20.964629417813164 -2.2481988111444666 -13.404001509817135
3039 8.811809782545277 -3.097381490260024 13.909396037864884
3040 -12.811679108585782 -10.673352674301404 -7.221822885389681
4345 24.205172697541602 -18.71903450457329 23.658137056604378
4615 15.427981180904872 18.212509905259505 -7.508378608600394
6156 2.5478644997454216 -2.296478746523732 17.502648407220185
3035 -2.4199303524071447 2.0598060190105034 -1.3187732960983127
3037 9.828622217944813 -12.555665858704504 9.183399433324288
3034 -5.68959585100463 11.656031743340375 21.29101398260634
4614 -5.4362928331556795 -15.991569383205379 4.250110927643279
3042 -9.374608898797625 -2.9272692538516454 12.835309949884417
4346 7.068130893246774 9.432260272295819 2.212742433760132
4343 3.2802547845659324 7.830087788912734 -6.448147131412819
4347 19.347929455155423 -10.282957363920785 9.964863234561516
2447 1.1022213250394934 3.2606798334616687 3.916899505390549
6155 0.9329573077936134 1.6707874457332876 1.5842334376130605
2445 -10.999831403334673 2.5878313977185217 -17.309369000577217
516 8.002797178717184 4.895251123368809 24.482861849783603
2444 0.7717651187837996 -9.87681270994668 0.8059415415544395
2446 -10.034774012899863 10.316882270976299 21.84772531311673
2484 -2.3770622489150814 -23.47236957617792 -15.842591000245967
2483 1.0846145511741159 -0.41773556263837386 -7.475290031928454
964 6.447612154535424 -4.689844904086547 7.518311496941643
2441 3.0394963013637675 -2.8451000216865086 -5.841611644824169
2442 3.8644409223746954 -21.187870465691763 25.077829137630953
965 4.707565143159968 1.5676318014194608 -4.109381638983494
967 -2.5568411976319676 -9.694040073724787 -19.136292330063583
5569 16.46024159560375 -18.080280648119967 5.677706696425793
44 3.3037623426519933 1.3141065425450968 0.6041961096797631
45 1.1786476195935205 -14.182741050218226 -0.7893764703635924
1113 14.712687748148008 -11.803585087655776 21.99560620933527
2443 9.5575402947667 -2.145758776461335 -5.690077909851715
43 -15.974697691610293 22.707381179631362 -18.280737680171836
2482 -1.1306971210489025 41.12009921538252 2.4784372004303785
42 5.626085718591163 3.5823714009659744 -9.660523700893066
41 -1.9874900169706062 1.2926991210076755 1.7483976347324859
2480 -1.0101877042325642 -2.0570118822493635 5.152156262617828
4610 4.126222160842942 1.9837890266786598 -0.41172101413769624
5568 6.240818284122757 5.813540986270466 -34.52764115188882
966 -8.754939037045853 16.30989853585647 -8.074087854469415
6154 -25.37914411383546 -11.389173481814101 20.848490896118502
6152 0.4471856932794426 -2.2469811913746494 -1.638242096219617
970 -5.705673193761123 29.520619045479695 3.1995207168181095
968 0.823802668817295 -1.1744705058148583 1.8692937048430582
6151 2.4044745582998153 1.0760856824225062 -7.985390322044209
6150 17.394687217259076 6.294251181636475 -6.556722015594031
6149 1.429164027465268 -0.9265591143116902 -0.029814046177370677
2481 -8.164603321927276 19.51225220306259 14.23635641451624
475 -7.520088943586088 -18.712016100854516 -4.041729155039769
4340 -0.1823851377619421 -4.646282523868729 -4.133682247121538
4339 -13.252201943475624 -4.503112646474698 3.198190764463536
4342 -5.924864560969155 -15.383145774958578 4.280049650775644
5084 6.4097630642104795 2.865220825519895 0.634137528077973
5082 -4.919312714406923 19.67263445111018 2.299498254098538
6153 11.3414886779611 -12.53826381307424 1.3127374799961995
3642 -16.516337462161662 20.20199737102484 4.924115555102301
4344 13.598162084659373 17.66391157742895 29.912181414637068
1255 -9.076297870264268 5.924743600490747 5.702706590925387
1575 -5.446175991655411 12.99825268303847 24.29246388822645
1574 3.6367315271677008 2.078556616056784 -5.294074003350191
3057 20.04170324462064 -17.902232997470367 0.5476026054651321
5571 4.513878495673152 -15.044245917217905 -2.5326453723920594
4680 -28.149679553171286 26.2842100944668 -7.139212745120715
1116 -12.372996871116804 13.109604503402725 -20.087604143652246
5570 1.7497231487408555 -3.2991336047536044 0.5563684423752439
1114 33.98850195032354 -16.012180371459824 -18.48195310466674
1257 -0.0019378001596146968 -0.9634378759742186 -10.562255220052732
1256 0.07183430998424288 -8.587276564524895 -12.368895253541739
4111 -27.535080403420025 7.801355062732251 10.251523993100271
4109 -0.4455783466839397 4.760598126965696 -1.0982833396790193
4110 9.169733092426128 -12.553518757957272 42.49782199754539
1259 1.6502319710635198 -1.576303340284811 -5.205446347983346
4536 0.994812640323587 23.01549422644885 -7.269432936544432
791 3.815468153596641 0.006565793728911349 -5.841503995762354
108 20.760016593621266 13.574413486879783 -9.17266765576071
107 11.052427572200672 2.318689298038575 3.3663550431320917
4532 2.7248510758159394 3.6700550276802804 -2.4556095680053502
1782 17.997790084199245 -12.06092825553834 -9.253550473651842
104 -1.7976903927020167 3.194901769610337 -0.25408164638560415
1260 8.573972837074985 -7.690786944336618 18.16220706930177
1781 -3.4644781838432945 -3.2986706044375866 0.5792954906103106
101 3.8107389203709663 4.985663430429727 -0.46064087747776056
102 -10.24152566435427 -2.201434445846918 -13.497771921647201
106 -6.170541356548845 13.034013890139851 4.111168541931784
787 9.486484199487855 -21.37130569177869 22.56151713567201
1779 -10.671940022799651 -16.91038382925718 -0.1867867648312932
1778 2.027210573955749 -6.840917040273324 -2.8844124243606384
4533 10.24719183336124 -27.099035000035915 -16.01748982961495
792 3.859679385386613 7.266280099147748 -5.716463231740927
4535 0.41632883929315007 -1.2858156520642419 4.968921894268837
1775 -4.4340484932044895 5.38856956713461 -1.3032916237608565
789 9.904380555687613 0.9780465117080885 21.513259387273248
785 2.3342186698178713 -4.425460683482284 10.391755260716472
1777 9.461512480731207 14.159758913238047 14.532998745099391
1774 -14.828756931452526 1.6435970948904948 6.267201939370148
788 3.7781406708426317 -0.9073719371612773 -0.8753172684502256
105 -6.127075304442059 4.664548644990058 -15.663811587924526
4274 -9.835058218614163 1.5353894116052824 6.5317454563934465
786 2.2743203215060492 2.072354557022438 2.0857858198911168
790 26.228311198147683 3.134287239753223 19.715101341552252
784 -27.97877736324702 -18.138949761634155 25.963642341669907
4528 -11.4218092420286 11.147563551676921 -33.65465884439244
1776 -16.582055749587767 36.2450810152015 -3.9454469688067846
1780 5.848605633256787 6.276061330550479 -23.045638651274476
4275 12.754960359568164 -2.2468907745790774 12.666629552966974
103 -4.024479852405342 14.708090302186102 3.6426320629078366
6082 12.341882303434751 1.6571636403524723 13.346325746125634
6083 -4.166971738838194 2.7087936760512883 8.066169443537685
6080 -0.24014181832832676 10.977079518220114 1.1962249161587355
4112 2.6393284488935818 -0.9397015194019885 -2.9999095679532006
6084 -30.453106484840927 -14.901315045577757 -11.228890717404584
6077 3.945778264042649 -5.925521297848657 -3.3231607496988436
4113 -3.3066067596898034 -12.674190173157138 -20.725421322277658
2520 -10.787794247931403 -23.095187744100816 -18.560312510271242
100 -3.7728907170254407 -7.052535131978398 4.643422582077491
4628 -1.5008898386919196 -0.4236697911285325 4.984753207758533
6081 0.330671235145463 -8.936068796604378 -6.071354046511622
4534 -22.730392392102804 -7.050020857799768 -1.572121375464482
6079 8.042002090432598 -0.018476462107657982 -9.867837941654841
4271 1.6708083015632076 -0.5644120224973816 2.1068418234131743
4273 -11.595359527410395 -6.41849222875325 10.298816751748333
4272 8.20976149730083 12.270272292263138 -6.484149887371527
774 -14.946472502042962 -1.3608148488285752 -17.525312397783892
4627 -13.716234069289762 -24.59457384982121 6.058188393239508
6078 8.403744132300304 -6.120114107962599 11.642750813273867
769 -6.802585988316014 -13.028767590919477 -17.865599268518807
767 2.165708565785969 9.392667570029582 -0.8256912857280024
770 3.8698526525693175 3.4202991779134395 -8.9962714000596
2518 -3.4134854455940453 -14.396378457824332 7.751393551545767
766 9.535528493836605 12.971406996376833 -5.265835883756276
1253 12.289791812988788 7.1324794472892 6.9013494101205195
2519 4.504640322847125 1.4775828187906157 1.0661599333270433
2516 -5.164698524861478 -7.074443841196083 -4.311419946991017
4529 -4.2164390894259 -7.36241888094343 -1.371717400966182
4531 -3.303477701526137 20.155494394347727 8.001759749383115
772 24.650424180997167 0.04023775028574485 -6.994042852368053
773 0.023369623689398985 3.197487651555534 -2.916423013329938
6076 15.318123475144 5.753043583983145 -18.109901715872684
4634 -1.4129190827028775 0.10650868528734146 -0.07553930778032131
4267 5.810437692376438 -8.980141588553508 -6.297071648594369
4268 4.035990220909444 1.558564430517529 -1.1842588101831855
4270 16.26639402869889 3.36783353960682 25.088266209289294
5031 5.117684465926059 -2.942320094622926 -0.25027038178135924
3220 1.3358492766751846 -28.232910347019335 13.795569561884488
4530 0.4235938684629707 9.471267911729418 33.015425959966976
4341 -3.2742709489627386 6.1631330905802155 2.5875534464252894
4269 -23.989614367146533 11.727327732941935 -3.4623285405341067
4789 -4.563393849641102 7.459070854432918 -12.141639048687777
4790 -1.6689284987545023 4.938019005635872 -3.910630133041428
1069 3.00509984664297 -10.009836549095741 -33.57729579738114
1066 -6.080518270950169 -19.786430105648588 -19.794288036753514
3217 0.03706324534607781 -12.048403273764025 -1.0443268469328926
1064 1.005782909377202 -8.473402574660412 9.360166342898193
5026 -34.396377402463735 -18.055704999235903 58.91123921038909
5023 12.15647865726308 -17.330651495477834 1.8469338433955313
3218 2.982232158699104 1.6135086609284603 -1.3216057043910923
4794 -6.894703416505834 -12.345137084601076 7.256937338294155
4793 -0.7052160474333218 5.947918457593698 -10.697785248299297
4791 -4.818782726092741 10.96478397167743 -1.1519238567954486
916 10.758473849343227 -8.493851928326158 3.365052738704654
4796 -1.1699138334111603 9.593708085332429 -2.977548961908473
4795 5.304369172532995 -2.1234685356921954 3.844674121981762
914 -4.511568023474889 3.767799381800334 -9.280091180983717
5030 1.387087659346276 -5.06685364689988 -4.059697967030984
913 1.151451199893333 -13.822578954359344 20.497376895766784
3295 -15.121441775137116 8.28151012259775 9.146923190546344
5024 2.8674002292457854 4.43636182457345 0.5127674608269651
5027 2.1994499658329394 -7.657995692307157 3.1516810873877623
5029 30.7449185672253 26.382598114430447 -11.082753885096555
5025 6.294741778337065 8.164223652276354 8.977679729133415
5028 10.901813216668653 11.536244075239935 -12.500709738408608
1278 -24.62683787807776 -32.14213457577092 -4.21740280682664
539 -2.306555749355323 0.91182533797622 -2.3415308570021307
538 -7.234794501873718 -13.168368109803419 2.4805503502430466
3297 -16.490840013755108 -23.22095833875247 7.084553157271451
915 4.6661974915362245 -10.475575311040883 14.241276665918727
3153 -12.314837245456127 23.00684527598452 6.442012502010274
540 -16.88319724983089 2.5072022693688876 -10.462048944516601
534 1.7506198302376004 3.482513000809739 20.57994499378591
532 -22.79711888470688 1.3687126916325871 -19.65085293651447
533 -1.0765239215335352 -0.5816210827630095 1.101686039594722
535 -5.576617588282971 -25.352118039675734 -10.02107331866443
911 0.5210848652510398 4.855408382746352 0.2507931622141897
918 17.722872218341443 1.2089300554455007 10.59537059473841
917 -4.550443918851115 4.242049530564601 3.892488775707824
536 1.5592175699982607 0.6272512382985584 -4.064519227996074
910 -9.030142082366783 -31.81344280994093 -15.33599414092715
4797 4.169501841319768 9.812353954337679 -2.757399484151397
537 11.654649157832285 -10.696059354181552 3.778045158709825
4443 -49.25194419723254 -2.7884185268452435 -35.57510552437367
1071 -7.283369069455524 10.932992260352396 -8.497746774304876
3594 -6.263047938196243 -6.655979265229445 14.025309564380619
3597 11.422351691925885 -9.854850802308388 0.9182492548390332
3596 -1.9399358427214923 7.685410363557164 -0.2800752948183839
3593 -4.210303848176127 -15.31395289218565 -7.679783329297021
1826 -3.5136346720323948 1.5497973929555462 -0.8478606184746381
1827 12.746204405523345 -7.161629204603503 -13.136762156093466
4442 9.953575287205211 -4.267015404771051 -4.917127168095683
4446 10.045767911996752 6.572199485495417 6.304039703675399
4444 -5.582582790169378 -11.814708088657518 -0.9150369885718302
2250 14.216636614671433 8.45613878552906 -16.62333063706783
810 -15.647878007916155 22.216467449267896 -1.649726965443203
2249 -1.4318880828260765 -2.145272393335331 -3.544793605594171
1070 -4.443300969924225 3.034617117287406 2.918166517379665
809 0.6660912212032049 -1.1016804373681905 -2.393296000577998
2246 5.757797553622078 -6.74117473570412 -0.6186056489629546
3592 -4.368863462516767 -13.177182325713911 -9.062708689319084
3599 -1.5899952566136444 -4.991667230764327 9.587002591595875
3600 16.590240735741567 21.28239419466672 -0.15511378977098494
6300 -43.5840457032336 10.029762614012391 -9.281553186950662
6299 1.9411725402846443 -0.04469904857764876 -1.3822971997342197
808 5.990932508875287 -35.360479129251445 -12.077778346790717
806 3.1095552578097463 -3.5434169346459163 -5.370267102010042
807 -20.803118851990256 -20.254629210607625 -2.6169226979850104
1825 6.712410189151643 -16.43524020795185 -9.780395006209746
803 -3.4809171664868286 -5.513006868096192 0.6418113297413024
802 -6.3321454884739365 32.25308106073066 -27.49119041677569
805 -11.539698794236783 4.75608772263431 -8.352407269671714
1823 -1.2011865463985294 9.00652793034358 2.477934929482875
804 -4.077243584643398 1.6403875093495743 -15.003298935243524
6296 -5.312843351933436 -1.41544315697207 1.5054048448076705
6298 -16.743617999817648 -4.07904483669803 -18.152623287684122
2248 -10.404919922824194 -15.70138429365059 -13.886035445679779
2247 11.465286015074025 -8.522589565458626 1.4282965608476832
6297 9.95882051475031 -10.84699984125308 26.393270840432727
1820 -7.266254622002478 9.472899905458107 -6.5958210160052175
6294 -14.003544001569313 8.696342463965228 -37.528507232246774
6293 -0.1972781529858513 2.9782315618777937 -11.432695618162672
1821 -2.307876547535205 -0.3909106878987508 -10.09267694095996
2556 -4.004965258229688 6.744200272442544 -4.519039131180463
3151 -3.1153984912980692 3.6483129917620993 5.779200538617842
3152 -1.1350712376529217 1.1169249961704386 1.8150371612226595
3155 -6.928928553990179 0.9450898694058236 2.842723682815463
161 -0.582017528990223 2.7207180728543605 0.25044889836242157
6226 10.184740005739776 -6.384160683512946 15.683382507856345
162 20.938223480795205 -1.0927103380511534 -0.19958579510952296
2244 2.8850440858405597 5.394523258648428 13.005142613381311
2243 11.02984388287197 0.495929647753288 2.6028990757293777
2242 -16.24601423093943 -32.824595556615364 24.107944770756486
1824 0.13980456296451502 16.671542145380286 -22.51143526974241
3154 -8.708704026999191 17.740912875150922 -6.977607960453011
1819 12.228740904914304 5.394820180110598 -17.456744338606473
5791 25.905051077677875 1.0082246770721954 -9.219243920708672
4363 30.71449558999821 -4.31366415416322 -7.616289801497217
154 -35.928642968078165 7.652754198225125 5.250199963720957
6222 17.414604113885957 19.43427781794521 -14.837983700450902
2883 -10.275044385125934 -10.214314115536668 -10.867397012424284
2245 -17.76798758885886 19.639345625099548 1.3396763606686812
4445 -2.48036647898493 -2.6130242059202184 -4.341809314612069
4441 2.5665780263883304 12.506064144872779 25.527050985540953
4439 -4.711308283951043 -7.358979378024673 1.5427872344450568
3158 -2.5279486378331653 -3.2507379065428776 -1.2847009906737976
3159 11.883619038147184 21.886849046405853 -6.755132283651004
1822 -15.410201049507178 12.873653789796242 23.557564322295143
3296 -2.0817276536815843 8.371171744267192 3.4474076528773567
3221 -5.18999190144194 2.039162671402011 -4.902523687848448
4956 -19.54221307752668 -18.8276016342257 -20.17544535988578
4073 -4.141730210476142 -0.8782474151270462 -0.3379071377916122
4074 -22.76428551574316 0.5377028646470147 41.09135456363961
4072 -5.964971911353986 -36.759160890609564 -2.755772150378892
4076 1.861291614677913 1.2655922331083693 -0.8557333980823476
4077 4.061192478536251 -18.911228117908255 3.146730013986079
2440 -4.301066553158725 -12.194141067683544 16.39923845614912
522 12.832122005769419 17.498549411808522 4.355764468361673
6292 -16.951662475424268 -30.273267040665164 -13.549278698453882
6295 -6.501002461632579 17.9377881654981 -13.504268646247358
912 10.825053799519734 -17.91364307879552 17.749443721410394
1345 17.124042240436324 5.45128368001417 15.491375023481675
4951 -22.811755780437878 -1.1550928619578713 -27.973126694193795
4070 -9.16711183116393 7.032811035754999 -0.14095267581954962
515 -3.935319140425764 5.581542790759816 -1.651041937786501
5116 2.5208196306511828 -12.571218827158363 33.627941334445325
5121 22.25341698374616 -18.078539661172957 9.826029286297636
4069 17.3993964435301 15.858459709279611 11.991714445135536
4071 25.215445879990206 21.517787108630053 0.6350112366939129
514 1.103389257717568 -11.416678344672533 8.53814176322224
517 29.10039787991304 1.561403443077066 10.68149191644698
1732 2.5798368324595726 -10.637725826434375 8.71156159989528
1747 -10.761542305599596 -11.061141565485684 2.092655878462567
520 13.620792005357027 9.774832978840237 8.269685265168553
1748 0.996701038961748 -0.6904544483171624 0.5264549664759902
972 -23.790342494443912 7.804558205449368 23.054345270670677
4708 -10.02808974697359 24.10373630294853 -15.628540436606288
4711 -12.127418729072774 -5.954122528265668 12.204512864762215
4709 2.1725227892884624 -3.7212199587354213 -5.7137635016405435
4713 0.10725225039238663 -6.476087791173411 -10.434812641011659
4714 -11.940993128190092 -4.721930421771868 -0.5443583151556813
1685 2.604732805402612 3.1542436610610745 1.113369419433095
1687 -24.938282734017793 42.544675929864525 -39.50470880838011
4712 -1.179629999481477 10.065791237589886 -7.371045010688515
2196 6.571792829769639 -10.863203020328534 3.2035506526467947
2195 -4.418862745374112 -2.745756605086707 5.72749961027118
4716 36.557434977119335 -16.820933561948024 17.234501722801028
4715 4.638832415137985 -1.548397643834019 7.200150688635625
1692 -27.492956636780974 12.6515692548032 7.013882846373867
1686 2.3860558601004858 -26.62740036376292 18.033636356166852
1691 2.30702760096655 2.189462946459774 1.5038677332669963
1688 2.729435921900232 3.386649254109622 2.3081585433544656
1690 -4.974187550166373 -10.110737649210293 -20.32521715886117
1689 0.7828363247809146 -5.537136525350985 -6.912730143439554
1684 -2.1416716561942275 -8.703152110965824 18.271088872441222
1755 25.07274861286063 2.3415069335011403 -24.181851420678758
1754 0.3323092930654934 0.961919638861085 7.067445061564008
1751 6.944464366132232 4.932857961479007 7.8360705443350795
1752 39.46394229936966 10.711208374334534 10.23861356430794
1577 1.8913601741311554 -4.450598014193317 10.398068219943571
1578 -7.869737186677001 -7.127332060960127 23.323559867257153
4710 -35.18031570932169 11.089844162015453 -10.406522284413086
2835 -13.984963057265649 -7.4177025490282515 -0.8990425368648494
2834 0.8937006378311901 -2.8803928681019313 -2.4166857066516028
4257 9.55370776163987 -7.591429729675078 11.895260524201861
2194 -3.8287563104459323 5.628468779206319 -22.05074850291797
2192 -7.843796429724953 1.3156804675468994 3.592864938291121
2832 23.611978740769484 -19.52624016815657 15.950705857034235
2831 -0.696263652370198 -3.938882609979131 -2.189804186150833
2829 25.66058309744649 -4.8095546833554685 -7.173576915249003
2189 3.0621870186317848 -2.9252133431256158 -5.1977582849819495
2188 -11.050435719314391 -5.89588821137823 -32.08190631404272
2833 4.229324183099635 -13.336259395071979 -1.0703539042342585
2828 1.9740479488932379 1.262426221789636 -0.960236733552495
3583 -18.170953431387275 4.934016910453164 -17.044419004529903
519 -1.3870487358706562 -9.282982494681663 6.144631901506521
1579 -12.54927933856416 -9.854564232438419 16.458274671957355
208 -6.0625109100070596 22.471298835107927 1.7683678380127452
518 -7.78443229240983 4.945607660152794 -0.5585497223480178
1580 0.716984047267463 4.73879072380095 0.45679802711730183
1581 2.382159511662868 -0.35351096108685476 -1.389622491703003
521 3.298500005972804 -0.06093466603984776 -4.559584777544711
971 8.499445214260634 0.8343662389464656 3.12955233854239
1584 -9.344377008440482 -1.2751112653299987 -10.20167701388756
1583 -0.5809448891420879 -4.459702584007931 -2.5065681213577538
2193 9.067312085366348 -30.5861224594879 16.749115877140518
1749 -3.079821714772639 8.914649821873251 14.011760761030688
4254 9.304152825955335 -0.5466019823930868 9.917465148533978
1576 35.90804010201656 -26.227807068586365 33.074352658939056
1582 11.962136358371879 9.741056451406655 30.271105028984792
2214 -16.227331475476355 -15.45514407697642 -24.42678660647821
4255 17.93673135724916 27.725688481847914 -1.948053638589189
4253 1.2596463629887948 -7.464932516057667 -8.658542660503423
211 -12.642825522315714 19.610854324586658 -8.862208425328928
2190 19.997641112294716 -18.445262195677415 -23.913149589721105
2191 16.528114317554845 -18.27182614244132 -10.146448783760098
2763 5.320433014536132 -20.79174007145376 10.786470462799171
2213 -1.686458803916473 -0.2422683452969659 -0.049178039173975265
2887 31.214241682201873 17.390403412456273 6.975354082396927
2830 -12.403919061736012 14.709167412563286 -2.516555319392579
4256 1.7128412403400723 3.767021415047623 -1.4370332556892251
156 10.392995629497301 -30.932103118178812 4.745641184834567
155 -0.5374806859055036 -0.10390389888394577 -0.40220753127059417
157 7.277067779834163 1.5263163375725015 34.50193687386538
1750 14.169144106504936 6.13218086162321 9.817855330727815
1753 7.146585057531497 10.361515250962931 22.010656808373824
3588 -14.99266338862443 4.3251745901993175 -29.176803953709722
3744 3.6017824097420092 -8.851929896608743 -44.98594517617932
170 1.4991522047521948 -3.5878432211627684 -0.7419341475240605
171 -12.01064926591503 9.149785714154595 -6.618720962473104
4183 -20.080711940109868 6.323666412460843 -1.4122073038225917
168 25.09533591657655 7.677018229127295 -49.408857797774736
37 -14.50833105428443 5.677958065156653 -1.4261320432509175
38 -6.203205951192873 -1.406885490640156 -4.308978022033059
40 8.878742729594883 1.7842855227456043 13.799083521626835
3637 27.56257177190836 8.141621912223346 -2.9067194467198227
3643 3.5016969866920107 8.035471382811911 -13.085688313734227
1570 -10.161693037695697 5.07251630606663 11.88980130443349
2477 2.3586334931048776 0.7394933733330348 0.9852036492162924
2478 -9.205691463793595 -3.483419653233653 3.693716652735797
5272 -20.47650163628991 9.857204265877545 50.49040702486074
4707 -11.326731879725237 17.460979892657562 24.459994902101514
167 -4.602559559664748 -11.879617142267977 -1.1430996728727487
163 -11.25020748779788 -3.6925131200798544 -8.164758505235532
4924 4.141023659092215 -26.0102157786826 -8.27047824490682
169 -15.1736794269794 -29.820748931260184 -2.5463233503014666
5270 3.1153663110448364 -9.482978167079064 -0.4866547918898605
5268 4.632731180049541 9.975003941877286 7.095064490000891
5267 4.279073389655875 -0.3693990452611368 3.465731247662139
5266 16.394315300378683 -1.0350242702537975 6.768773114579917
5269 -27.078667680587753 7.180660490128415 1.830030302036308
164 -2.5153671121193173 4.374485306257533 3.1852107703063224
165 15.314973301635327 -14.26058684649714 4.893795065921359
166 -32.14272113915064 3.279689749978793 4.4881699680478935
39 -10.973157966941821 15.771031452469389 4.682774765165289
4992 0.6690331616426874 21.320955427370336 -34.65651161708191
3522 7.214975824842546 12.697533139510368 11.04416319661794
4989 -15.445088461181353 9.47112124165251 -13.095963580153066
260 -3.6030618305774063 4.582620133223321 4.533194207137704
4482 -1.8657679198852086 -17.125795379828308 -53.957988915886766
261 -4.811187589343419 -12.712168507424417 7.746447411987102
3527 8.561477771310622 6.046086897579531 -0.8767838389953807
3528 -0.5736165226823136 9.142238178881053 -1.2347318271517849
4994 5.326191443110521 -7.785147685158846 -8.841377607136774
4995 5.538614373537725 -2.2216623128390327 -27.329745916581285
4991 -1.4336164980739556 5.99390177924591 0.31460940311775065
3525 13.403821787098192 -13.968866865381049 -12.149976437328453
4988 0.08390329231147438 -2.066238900032617 -0.8491033497325424
3524 -1.5001575247862498 0.5551051030619956 0.04748684938085646
3521 1.1241606219117535 2.5028651597762592 4.243786669879901
3526 -10.841530007188272 -1.9603995246875656 6.245632609977993
3523 22.150125089231764 -15.336394816642542 7.494615126721537
3520 -16.947236269594516 23.150904986927692 1.2807737260708145
2476 -11.796557241188806 18.921170991425416 -12.172501223336399
257 -2.3913816365198555 -4.557126778503912 -2.483995388521764
259 -1.4015162048803498 3.4706329607252018 16.506062218662766
4717 3.206262176606151 39.26696992444235 -10.467694278709084
4721 1.2398035278151862 5.542567445972511 5.737639572707064
4718 -2.996020350655802 1.5076581757997625 -7.68304557253053
4703 1.979540476237171 5.274171061574612 1.0712078854031901
2158 -22.27365618344509 2.846150362603095 -13.773273443208648
4724 -0.9880713495801886 -3.9469226745962995 6.611092793404493
3639 0.612411113470058 18.988933538777157 -33.23705560365683
3638 0.17964996226061497 0.6074658881931795 0.4031529069920387
2479 -8.906899372059202 -35.57349504654822 15.380235708671028
4706 -0.9588255038894626 4.2852890587045165 -1.056444208061802
254 1.4379964567795451 1.5284317985369844 2.2736885763704406
258 -14.28751078800673 1.055063062372087 30.903177400104543
1682 -1.5112673803135956 3.9756331005869643 4.309923523689802
4725 -4.748296679413927 22.790980599647444 20.706075099049933
4990 -9.872779936665484 9.184305514213015 -2.728326877148757
285 33.26450919282608 -22.673863479639135 18.71017362313044
283 3.478345891350855 10.185498959497494 -8.313530188788043
1053 9.118757193929268 0.5145646938039593 25.59160388020937
1679 -3.5510681110486257 3.594509506694222 -3.3766382050757726
256 2.780957139603528 -26.69511107815912 10.719066739673734
282 10.326841144850357 19.189463324458067 -30.675340441310432
281 3.2325341598893638 -7.901871311302492 2.4264251563595103
284 0.13517593237657063 0.6175820071058663 0.392117426915132
946 -26.2160990102251 -8.329500496450448 7.2248871604625515
4722 -13.745968133700533 -5.952005239319598 -20.324241471857547
947 0.4375954486851875 -6.052304776598833 2.4478479632283374
949 22.393210707165444 -1.9073624444864954 0.06331321694730005
948 -34.898479872080024 6.330909498628247 2.7806046397686623
1050 22.324291171671213 6.43089909091818 -6.052862646620339
1052 3.570608733570074 1.9101654036340037 -3.7495548244447168
253 -4.692897061300733 -1.6908795479988088 1.0405237892640449
255 13.923479812264615 -7.545286089644667 3.4331719123742674
1675 -11.028916305776555 9.005237876623445 20.745512725565042
1678 11.36552459821329 10.260444892225705 1.5053680788721115
1677 -14.365103222094243 -27.89234746985289 4.3750314147865454
1676 1.2278799076873048 -3.637621122359821 1.2218879976476171
4987 -20.46312408684966 8.855031264778502 -9.954719395180687
1049 7.145101885852768 -1.9049885954475008 -1.2343730134207194
1680 0.6585703459780832 -12.498507178500445 -3.9323625455658875
5274 -4.391896159447718 -2.4357255587887257 25.59978071787203
5273 2.045051481465178 -0.048523203010946814 10.444342193012666
4993 4.588417821475828 26.58655306271736 27.37023670931507
286 -5.467401616662547 3.522511051779387 -9.978976406262362
5271 1.9133349468737497 -18.863367967280137 22.64645610230682
280 -3.764251350573844 26.217620366409726 31.917724203195384
4719 22.550305306539244 8.106975548675399 0.8823629779875819
4720 -4.8375742524148295 -16.201019857727175 -9.371691158452018
1569 -14.508521378858699 -9.644910778698593 -3.6113261462338517
121 -11.652601074236085 8.636290758344042 2.4679657219024373
1683 -21.0437849742989 10.988430129120639 7.082756529748614
4944 8.980524363726923 -13.051409225838908 13.107606788127859
3641 -6.378440571350786 1.690178549083703 2.650996298175019
2150 0.007537962353532739 -8.455979150801959 -7.411104983264131
6132 -10.594062104113448 -3.680461425830088 -2.3641923688728905
6133 -30.60828056596688 -15.75360009910336 2.723923068483325
768 -6.70739431158982 12.711691985553566 -21.64174148379992
2517 -25.796686378347044 -1.1835216550652679 -0.5696125076394163
4180 -7.1820687520821656 -6.888672323653918 11.096867801341954
1047 -9.435051338921454 -23.97691810172232 -20.32363867491567
2700 9.120891025257748 7.296092434262907 26.935614533024506
1051 17.43313954686518 -5.863954996980276 -26.768739211046178
4352 1.5693278970704168 4.264816377727534 10.453686639235952
4355 2.956522698025643 -4.82525309236708 2.9420400984247848
3785 1.3243334302200382 -2.097257796092724 3.890868415367212
3782 -2.502225221876076 -1.504896805885534 1.3295329581977693
4354 8.886441587457075 9.242622073025426 -4.969193145707032
1568 -1.9690080073780265 3.888343887622402 -2.0332135406830387
771 -18.08271787617176 10.521080620157381 10.809809120309154
1045 -6.155018321904944 34.210639875259794 -2.0327581577083715
1573 -23.45624486295477 14.186857147162268 -30.000737646686122
4177 -21.634908355200032 -3.8345193770062953 -15.353722545365441
4349 -4.914975256974696 1.715985098511688 -0.6150318680537021
4350 37.651965595755954 -5.712827440035823 -4.266823765094335
2148 7.538204157321759 2.695314465238977 5.513114802889091
4348 13.485351872788598 3.589905412852381 -17.536614461410327
1048 -3.924919820421354 15.248007378132652 -28.200312452233693
3787 -7.271489698719066 8.565665605779406 -22.48099626223921
3781 20.960456574328735 7.5741804421155665 29.69390613535784
1572 -10.195518673083305 -0.187734148003719 3.9943438709729446
3786 10.84873089948255 -0.1181348102819719 11.35943512250381
1571 0.37576968875010325 -2.181374476403523 -4.37937529778909
1046 -3.5780477665554686 1.102290569465006 -7.16654953128978
604 -20.609889550383162 -1.0744413492565108 -7.755374041460026
1567 21.333421389285185 -19.530264133475857 4.4571691838310175
5041 19.974502331405187 -2.7582747472710905 -4.873281280013377
5044 7.881778856654694 23.994338460179915 50.440287008898366
5042 -5.340019673234115 -3.2195501414971903 -12.459774380889602
4351 -24.29365532719677 10.459013340036197 8.633016063735157
5046 29.886612521228912 4.017094265012695 -16.545050344216456
6131 -0.6451293323895149 4.725956589677908 2.0529864983154575
6130 -2.6417380922444704 21.46274871174152 -17.478280797600213
6135 -13.281565731094885 12.471502796188455 -9.318459110473839
6134 -4.12596271259869 -6.70492308853946 -4.396268870512659
6137 -3.328063599566781 -4.019661278861954 -4.226397374145859
6138 1.884113138394303 15.44134982136923 -0.22913420774224563
2327 3.794481846964616 -0.6201470463247069 6.55234488604818
2330 -2.9491147378864517 4.047105737990572 -9.04310442739547
6136 -7.288463208691009 10.271988420638902 43.257917345354834
842 -2.053738030623137 4.914396171478394 9.5200383743288
5043 18.494358940446688 7.936037724617811 -21.36959168962488
5048 0.9097712674257338 1.3592102840618028 2.540671598010135
5045 -5.429597989775627 -2.29102412331801 0.10666081648704717
2697 -12.893060672846646 -3.7230665158547027 -2.4705214568832927
5047 2.7267913067350484 24.084002615796816 -5.018506666527818
5049 -12.454247124163663 -9.140305915060544 -1.6219885635128848
2698 -0.22941597890825816 -8.463692372917949 -0.3357811267106893
2328 -1.295185739626554 6.707677550395933 -17.75081184511157
2331 8.846389763718374 -15.615775895235783 0.8316862530453144
2696 -2.86384825631833 -1.4564010862136187 -4.65014692339282
2326 -6.109933972482665 -0.32321601260088684 22.270995400020468
2324 2.023211787289584 2.164684410224428 5.33268607507139
2323 -19.249714347865428 -7.118161685309853 -16.949792030779353
2325 -4.021857194610301 -21.835566950006122 -3.588556619762295
2329 -0.8133625941502862 4.776312823934311 -1.0819614981893952
4761 -32.67573009270961 -4.844031330098576 9.82890433316211
2699 4.848980124416855 3.876750932145294 0.051607377649807246
4760 0.41355937860209413 2.397106431067946 -2.050921230154448
841 -1.7341416570189148 3.729877971656743 9.470156359752904
843 2.9707678011951977 8.071103209171113 18.65094644910515
839 2.094966807796631 -0.8812481315696005 5.022617498843705
838 8.472377902365734 -21.66939722054978 20.864101511703034
840 1.7379563616441176 14.049410639590624 -2.6058364165130468
2694 -29.363212275457563 15.767075691400956 18.667583216842317
2693 0.022820497057487572 -1.456412792408952 -1.826576566525202
5454 0.20244603680065207 -12.535560998916377 -1.9725480432070575
845 -1.616721028234264 7.330851605887942 -3.146055976720704
2692 0.8361173380091077 14.369596817101213 -7.793781498962059
5453 2.9501398034154858 1.766744928560042 -3.053747981731932
844 9.395768650176631 -2.3072867470749983 -24.014788782128303
5682 7.155478750329947 12.240531038747893 23.47992446898306
5451 16.256717754793765 -12.825472389664663 18.325047483443036
5450 3.7934977670076417 5.5686565388375575 -1.4141107684807193
3256 -27.633756482151572 -4.525917718744867 -13.90446377163377
2515 9.015184863345953 8.536243070500191 16.0233783601294
2513 3.180234384472908 0.7306749808967861 0.17163040351768222
2514 -2.5211388151804828 24.470471149570447 6.535812785189495
3172 -18.25439787444001 -3.022197159336033 3.537881432891728
4353 13.313357124437463 -7.93091847375133 19.952670416064937
1855 -8.604202859984522 31.728660902543567 -2.5105566041327663
5721 10.495332642191057 -7.100323054992551 34.06464144833971
1002 -1.0201761051719058 -19.570655836349914 -16.027984144682364
1001 -2.6978997385072114 -4.4204275444525205 6.685053786474454
1000 -6.204418553647908 19.21213265372158 -11.17410573185918
3157 18.425006762756727 -3.637833540079879 -13.95616814155253
2555 7.369353204648681 2.406988088866762 5.090390018816178
2551 15.965896017099622 3.8509372252435803 16.20088303025112
2550 -19.90143478951712 18.433183823957783 2.5615421770124596
3252 -15.208967241621037 8.570455279018791 9.234472021992685
3254 2.3173803266435256 4.402953212312212 -4.299392591049799
3255 -6.714348429220663 18.61866790914886 -34.666218251367006
1813 10.35642706465778 20.9426477452648 32.40578474601217
1003 -31.937468453195017 -17.307229463395217 -26.29239406076593
3156 -24.07999365069427 10.54131252472334 13.983974278068985
2554 11.954080929515184 17.33251000788104 -13.141476301607142
2549 -0.6609782458062674 -6.100017253658808 0.19576787493040748
2548 21.109118907121736 -1.7864339458467444 21.093558501143974
3250 3.9585569136670866 26.19113699729323 14.830188044452331
3251 5.314071405083607 -2.5431911249919 3.6927581923239154
3253 3.7938842812407474 9.815998686066564 -10.410807950287579
1810 -4.298228176790806 7.221133970876223 21.875100026698938
3996 7.415516068550104 2.787040428655341 18.00969583871785
1817 -2.1676926327278796 -1.9185470010349206 1.1581258685108482
1816 -3.736027743128331 6.411978600216051 21.614619736834413
4438 18.092470474665785 -15.641765734618092 16.295709440070556
2552 -1.3855246734041882 -0.47722614849698375 3.9744089504365365
3257 2.1450780781599277 -0.9510096727001935 5.74154133071257
1818 -7.368830370108796 -32.09714995403741 -11.635544556357694
4440 -15.471582069651935 7.132909413977166 2.946160573135957
2553 -3.3131929622324052 11.576665146320885 20.26369446255217
2889 -11.22792943015248 13.886245548573127 11.403441914481485
1812 -16.9366652965711 11.905646606332907 -4.912552881047919
5364 -5.72028735853167 -0.9733008145993277 -17.254369737689643
3991 9.318650040278781 -26.667708966972086 9.953562987932985
1814 4.831804195846892 1.6483967321787283 -3.6967792867117786
3995 -6.060654632331677 3.765726739171123 -7.285748458026161
3993 -5.799090779886634 8.031825250238665 1.3638028493207754
5358 2.149658450929985 0.00794348925302486 2.147219801208836
5359 -1.531068493549878 7.6821443784358365 0.5530427843560333
5363 0.696320113558894 -3.5580159482966582 0.2656892872096093
5357 -5.343716811377745 0.07979818429293714 -3.5872705314482456
3990 -4.442588839298773 2.245853833967675 7.074603895113863
5360 4.194418672281691 2.9195028146599005 0.5685305116765147
5362 -15.464286396086752 -9.129519679436823 -29.380890239655766
5356 -16.316915531129375 6.415829678332482 -14.267312682155334
3994 7.663193626383257 14.531277172875127 8.217130785227365
4906 1.038350334956448 -8.178298787796239 -17.764131508826086
3992 2.6854128518971363 -3.574668627701525 2.13940152699169
5361 4.070679370689453 7.3014085498755525 -7.139347521257778
3988 14.636760426886697 -10.735187087725341 -0.7052473691730101
3989 -1.5865719051522336 2.7514106194052057 -1.594044937971286
3730 12.290713879845777 -3.2552697448142305 11.777791752143788
5680 6.590343723096064 10.597048198806052 2.722184312300793
5681 -1.626024088142701 1.684202237556861 -0.7319972680141836
5683 -16.962188530804003 -3.5141728376068446 -16.6159975868261
5686 -2.6097860439123353 -6.219043835850642 19.00925934203268
5685 -5.804143763387462 4.74274258387375 -13.873598264779728
5684 -4.743008830827759 6.786330398846335 3.678317074952596
5688 -11.558660789524648 -22.863129806958543 6.690526381224195
5687 -3.2684290616278138 8.097555080391729 -1.8838349430712422
3729 2.8584945917025286 -34.592726704609 22.281039605732474
3728 -1.615368494521207 -7.349776239213408 1.3899700853331254
3731 5.710848428355207 -3.16768511982478 4.481152423914153
3727 -6.419096380193722 -6.610589535236617 6.067838323090082
3735 -5.2447397698110345 4.469944451158587 16.55655857183913
1811 7.312694037435664 -2.4910964034338776 -2.108254644685823
1815 24.578674640877285 8.611873496668023 28.930847131510387
3732 -7.908525731162276 24.428525027069348 19.064292748518465
3733 33.96236885826682 10.564718163083082 14.46304541794108
3734 -2.018906760096718 -6.705987811697927 -6.857923186257822
2433 -0.38976590924229354 9.109900758541917 -5.562663851390595
6115 -7.623138551356089 -19.104689404635153 -12.02800183707737
6113 -3.1854968342295558 -2.1025533012027857 0.988764933476922
6114 -11.786100072789619 11.993351956870683 9.154695345716739
6116 6.265708087638386 3.7046676586178227 -1.7356916598762158
440 4.219925895894436 3.3992644997625776 -3.5522349688490964
441 -24.943199976970018 -0.5683950780155395 -29.37641576142952
6112 3.032762631129799 5.323758779210475 2.589364013204038
630 -0.5647517130601061 -13.92919803628641 13.08874039549018
2431 -10.775761133883485 -31.216555232541896 -27.77377804014955
2650 -5.2188435469866015 12.979414450456602 -10.01960396248949
2432 4.413157353008337 -4.16669070845093 4.12022411065781
2652 -22.222641991497376 -13.947431898912622 17.348696738130368
2437 12.444945588722291 -3.68305822310963 1.6559296991969432
6118 16.861727987018767 26.832706615632123 23.290676841278934
6119 -6.885259793547408 -1.1719777645645462 1.4243599242303993
4833 3.9360187362908685 -6.131577427404552 17.17092603372559
2435 -5.492787338120374 -3.629903762728509 -1.3229146430184093
6117 -5.926084315715764 -6.426011112370853 8.075816043658307
4830 13.189451822718958 3.3519400996935893 -11.97976342551859
2436 11.086713358232105 10.336749583656399 11.292686182197095
2434 20.04082066150105 -17.344269779024643 -29.82349943502576
2884 21.133101310790853 2.8373189826032736 15.102132975060128
2438 -1.8393676170572524 -2.4035954527822665 -0.477647600152378
435 7.58192541771041 -2.7637106996675906 4.633990945530395
4909 -9.619434826183483 -16.819634375517367 11.782437737588511
2649 -3.044411410486721 -4.218176556490123 0.5661231719011834
2648 -4.059787733484108 0.4608025100051398 -3.2142478836749864
2651 1.6568987860285833 -1.3748979506959662 0.4249726876500811
2882 -6.956842821297561 8.264728848444033 -2.890808280288511
2653 -27.489242626046302 6.7162603480122485 1.510608273409951
1646 0.8840493281888767 8.105856768541111 -3.4858940381132335
4832 -10.109935085767841 -3.8208534470159825 -2.4827095976221174
4828 -22.566277766586474 -2.362416146644759 15.569596124893945
3893 1.9780547490954332 4.758037640436229 -0.7835736654473052
4767 -15.01556281242958 23.801752453966696 5.249108889181369
4769 2.763412311132168 -1.2076428948392939 -5.0821415573295905
4777 -6.027645386541612 -29.192131627670314 -17.657540125346156
4770 -6.4637589174170476 21.77790118222625 -12.048220263257592
5600 1.440388428939462 1.3293979851130457 2.697048946022134
2827 11.178922648758702 -19.732426199653663 -2.4733677403256644
2157 -5.418605821684024 -13.269138453211315 7.842266131683553
2160 15.072521030166627 -4.840642018102414 19.866609043347026
2159 -0.8496430542326151 -3.833540862148253 -4.42602122226739
2156 -2.4918467862774762 -5.306401011824511 11.934859782649632
1735 2.7708284961175043 -1.8145754433107317 -21.410789915724553
1734 8.633021271599707 4.0003940827713365 -17.278331355212178
2439 7.613894620977524 -3.933438054433383 21.208650912960966
3896 -3.218739793313165 -7.289374206256609 -6.74237955652678
3894 2.990443671979403 3.3025238097773713 -8.920400991709004
4773 -5.620243145887961 -24.273298057816458 -12.905431149768152
118 6.249655710457617 38.66106420648469 5.6398136055423915
1731 -11.22525394422899 -3.8244568990211376 -12.468125343581152
1729 -1.14997750917134 -5.879046483322275 23.66587123154472
1730 1.8430140445294523 3.929781834475078 1.602628068268761
2886 -23.73983236095911 -12.389171283838813 9.0454102874775
2885 2.43728720791327 1.1728533989049958 -6.94091183513758
2899 -24.752299018470282 1.0207631244768411 -8.93122641568074
2631 -2.0955906887281457 -8.043551012720249 -3.302807166277588
2888 -8.47391961480207 -0.48231195087294315 -6.34526423510438
1521 31.509013454850546 -2.992525853309423 -29.985449259426574
2881 -8.207303319287758 -14.456501347071654 8.539775160170215
1737 13.906553079540824 8.791660559142786 -15.723377299460838
1681 -7.68119704992916 -19.285985110982196 -21.022318669662656
123 8.824039656159158 -34.889135008034685 -7.342051830260389
2654 -3.3119652131502217 4.075616438557827 -2.731268848113208
1733 1.4863786352003303 -4.885434260619201 8.31430916128274
1736 1.6880248644063987 0.2349198686456707 -2.410514099687686
4778 -4.0278741130030475 5.484995535051954 3.463590991589193
4779 2.3135848858773542 21.90740053959693 -7.863163830882471
5278 15.74596597982495 6.431681924225639 21.01149149059219
1520 1.5756158033297014 -3.5824456264263205 4.06165218387385
1518 18.53823634423661 -19.204893201874977 7.992742817103707
1647 2.931260707103508 -18.368127431669674 -13.518998607236947
1644 5.979446020302605 -3.2874439988931923 18.409070869334325
2655 9.228755701288883 1.605124859159701 -12.953754419050338
5281 -9.477172089588006 -6.252483394233198 3.2001978496357233
2154 4.955650687960968 17.99033678070529 8.757971890506388
2153 2.057648711582001 -9.718012509372553 4.505372792350705
2155 7.204783788802835 3.1263589774437324 -3.9217307131803616
1643 -4.793088333994652 1.8408895017869977 -3.389343692983717
1645 27.06168669723119 16.510678658506958 -7.708841576897319
1513 5.548271295356552 -12.664421391345103 13.424813389480883
1641 -4.176822531937848 5.674024605285004 32.72117859063406
1642 2.7846221504075417 -12.742649869200322 -9.87189889829083
5283 -0.5614165591882433 -37.44310650580962 10.628441535066617
1639 25.02836178238228 -14.917410647771394 -4.71820235990571
1640 -6.129088558208076 4.354504812381088 -0.8625473886675075
5275 12.307528963530359 -5.636418030365613 -15.89289174376545
5282 2.9095079213029966 1.2217142603931275 2.2916034261037717
5276 3.048215864093025 3.081877597927537 0.5549985718021269
1514 10.950738986036871 -0.6028389324166172 1.9052639343085866
1101 15.69529566416785 12.514361447673071 1.132516740691766
1517 -2.6808223373316817 -1.502597204763031 -3.743169210337454
2905 -13.69177445441326 -16.990322204920474 -22.92654960967599
2902 8.894863790400867 -18.554358852601393 -20.907421474796337
4775 4.576533175984061 4.017365786176489 -5.451330780364545
2900 1.820408023747608 -2.084392358319122 -2.7377721317968504
2903 -4.440112813433621 -4.313476812016588 3.554242701807473
2907 -24.61388763759914 -0.10839686481296486 1.2096875669370812
2901 15.286817727196398 -13.66866616667789 -0.27503464128569094
2906 2.2312883393139207 -6.8048778504356715 2.061813023935732
2904 0.5008875908816229 13.627897867663014 -1.8351735804016946
1519 -3.690733812537202 -13.187410506741728 -7.802841503124816
4500 11.571927771700572 10.366814507079985 -11.652456784985405
4499 1.4071722169056335 -10.396482307748808 5.065666893160527
4497 -25.70628568198509 -7.160744830599728 -3.624685141037465
1515 9.724025568043361 25.46790902075141 21.336741948695362
4498 22.956330618806835 -4.239035594812548 -10.71006518030774
4496 0.6644392019957555 -2.078716740334154 7.2388308093017715
1516 14.022551993683573 5.531555184914125 11.544749172826084
4493 -2.7849932824393346 2.2934578376972974 -0.009017735392368314
2152 -11.06378874303159 -13.40027622998999 13.111166814583864
4772 -9.427954769737541 -5.797549998035846 -4.412749369848823
2629 39.51534425354399 1.7345122380037836 21.201560728049895
5279 0.6827340684980415 2.0303679933192305 2.2033561458381716
5277 19.099595227998456 -5.800953023884592 -5.41924611586142
5280 -10.044318282924081 9.162691217967597 -25.571405055967382
4494 5.920016910276512 14.361925318730645 -28.565037794260036
119 0.16922896218766567 4.120155843425201 5.033296784406001
4495 14.121054403213053 0.3402785542377381 -31.581374583265546
122 4.005457402450808 -1.5830510680188854 2.3920222903995585
124 11.586306967580256 0.3987042435051013 13.509783727146516
4539 16.548629765030178 12.194202630212683 -29.857638886859288
1099 -11.5282934134923 -15.277716082780833 -1.6423890986204932
1102 0.975182805174748 -23.1393536852081 14.765563234595739
1100 -3.8736584526345914 0.14741241166438665 0.6528304996401945
4492 -17.492805864764655 24.969893468106367 3.3890150799501155
5599 -22.0293760662786 -15.25568157745438 1.940775533317897
4776 -21.408630223066293 7.277638884902341 3.084150723507157
5606 7.717591641725311 -5.308168130627704 -3.4324990994299696
1104 12.057457702773295 -2.0614760548914006 10.493149174590664
1103 -1.188017106596931 -3.4438993853743036 -0.06715331419015852
1105 12.423599825872621 12.319860626803058 -7.912403319419297
5604 13.470313604719284 -13.845451815336558 -12.297218764546496
5605 -22.38612825117175 -0.8502653668259385 14.896814122840272
5603 4.689762222620657 -0.6933515560219643 -0.13315279533721716
1106 6.163734905441895 -4.814151255738582 0.5228659018207212
1107 -18.57075349758161 -1.296372835904881 -2.031570235629348
3352 16.657969737594556 4.81388226227782 -20.918670210428164
3349 -9.254865108657073 -17.067665386382913 19.762273714628634
3350 1.5063488952220743 -1.6110044066909517 1.7418169904495937
3351 15.17013347665331 -19.00550847227144 1.9162413175321786
3685 17.04073191703527 10.170218424178927 -13.949066429627631
217 -6.321986768178544 -21.05467307920699 -12.580545332424537
3689 0.3662907485607388 0.9350867764750445 6.7032640882123955
3682 -6.989414864510628 8.473736184347205 6.607409398716102
430 4.035692671234496 -15.410987051670862 19.152080522961906
424 5.322719211453257 -26.757617321687523 11.390343260936861
3683 0.558228194327893 4.876810792413053 1.2808437125854817
429 -25.609483046734628 31.89471257307191 16.873910581461956
5737 1.5114639684539748 4.221236385445774 -3.7773595911277953
5735 2.0023681564147027 0.4463542430497608 -4.626224224295091
5736 -7.917381581653871 14.932434814979121 -21.962751847775394
5734 7.554448258400369 16.621318242353176 2.4731627568859325
426 0.17016370277471354 -24.216874771917357 5.478362878547316
425 -4.800244731007091 0.5080741376917557 -2.2669970855519734
427 4.895308023330261 38.12232565563399 -3.745707525607316
428 -2.6846473782541524 2.361530374249609 2.022161728797744
5741 -2.0002036212278713 -5.6367935620940965 1.366175825365788
4905 12.628042403169033 28.680238797427947 14.723102478858962
4904 4.960314592375565 -2.6614808450375964 2.592835796244933
4901 -1.9545553140635301 -3.8842306935888065 -4.649246623156333
4903 -27.012489217986417 -23.57236462644248 1.4359159915272208
4898 -7.701106896562302 -0.5184245105361724 0.6103951196725736
4982 -0.398275226859706 -3.3824640715645855 -0.8644929338271031
4985 -4.662404838016019 -0.47414018898589266 -3.7925402665856796
4410 10.926684795885942 0.3433505029997333 2.9845942031062043
4409 0.6252502854893757 6.194887885652005 2.2437653276367175
4406 -2.640700666174675 -1.5251018608325404 -3.8386880298909047
4403 -5.595034326054127 2.941323624565435 7.159274285933992
4408 -6.694017419172563 -7.665356103222369 -21.623242677551737
4981 -15.605153305303443 10.584405813760766 7.121685635170638
4969 -26.35998066494803 11.751093075420547 6.20856842873463
4902 4.422361092580942 -13.924651673330624 20.1209608618194
4900 -37.55271208028392 -8.436900306764107 -30.53732081425537
4897 13.751076115603283 40.55383288927699 16.44006638129553
4899 3.8640653719868325 -24.097685483522806 15.621500921540672
4979 -5.079792616125049 -8.45496048537713 0.3901847795322626
4978 13.381942918407622 12.088084796670929 19.71273254652594
4973 5.461348280870936 -5.7931863643499595 -7.776486277489973
4980 -18.25624867771633 -8.831503440763363 -13.311969891472621
4974 -12.960556155926168 31.80205115606522 13.995183008824666
4976 1.175183089856196 -2.011897470673171 -5.205509254924306
4405 -13.289323264362185 6.484739044435284 -26.199166988071738
4404 9.785395427363662 11.169504394689017 -25.33929659709957
4402 9.105150219790723 19.6558210685105 -18.702821699100415
4971 14.082815722274047 -16.99169645862129 20.36838222787807
3138 -25.87606572043774 -2.7635074079921056 8.912967724849372
431 -4.117401073703112 4.231871845135364 -3.826915298554838
5739 4.89605796397412 -34.2036331677552 -16.720472581706726
5738 7.988861837532626 5.380090615763935 1.5780046172016762
5463 -14.251154107131425 0.35154041079599835 7.065159620026176
3136 -2.7719176110134045 18.16678886706292 9.986030629749662
3135 -20.698586525758945 -23.403880820590707 -2.3740111611608237
3137 -2.911074365300186 7.013063286631318 -1.7987925875634558
3139 -7.087842394308996 -17.10018887101999 8.452934062200766
5742 -1.7046353879186373 23.51085745370217 14.656537362212982
4031 -4.987438189155404 -2.5375426662337053 -0.7761202718759054
4984 15.216034567694994 -6.323163363050225 -25.410992484276072
6275 0.8249017253175556 -3.5831893412276083 4.9888904671031815
3134 2.344756910117315 -3.397536916512332 6.638635531816296
888 -14.14572280987218 -3.4423101107517473 9.494524977188817
5740 13.857546235148806 -3.790272623425096 -33.128107328593295
4983 -7.352255538044681 -14.455074345282487 29.540754961065502
4986 -6.689913899802186 5.1350256144356585 20.809257127885882
6277 -8.727575871911972 5.627475165353189 -11.24411547881747
6276 19.628847960948526 -14.265325333500156 -2.471291521108129
432 17.201244314369834 -16.629672159485384 3.212229635193394
3140 5.859766512720673 3.4612875119540165 3.6702329780796137
6055 15.06377721142113 15.945722757438448 -26.063306045729124
3133 4.321460593374142 18.373255902158487 -14.596022799879231
4975 13.735035794230313 12.481024550795551 -17.7444364003949
2622 -7.503795600943899 -3.6712575013924664 -8.932180648398322
6207 -9.882528918306177 5.1921871895041365 -12.779467790448782
5242 -3.0555048907553193 -0.4366343428222801 -32.944921712772576
2527 -2.616565089079006 -12.653668143824142 -7.0619123542266315
4032 15.390654459851932 -25.600468616020187 3.2861144397939532
3754 6.395025086795178 13.975650360792036 11.113157973835198
3757 2.7823944514701817 1.2678887850774614 -30.121322843536632
886 -10.897764943236645 5.900435036179977 -16.653272095654405
884 -7.488766723491378 -3.699259174068588 -8.75300579607239
883 1.7369133717462104 -10.88325799800601 1.4023850060864973
612 18.198619364380384 8.475067217890343 -6.035588654252503
608 -3.8736229664303856 1.2161894896867422 -1.128509901890433
609 7.245764474680387 -15.90683412842669 9.579976495297078
3013 -22.987865160853584 1.5161133231137598 -4.745312110534372
5296 -0.21130147009981068 -13.808035572480533 -2.7512056267366183
6054 14.660764501599347 -10.130459716664978 -3.818957800240442
611 5.122441302779014 -0.8414153437418569 3.3212896145350093
6049 0.945640533769617 -12.931030389414806 -17.57929822657514
6052 -25.534693119080753 -8.14047841926324 2.172540692185917
887 -0.7804277793794854 -6.950071873011098 -2.6247385421660114
890 0.8278685183615155 0.09236418916708938 -3.3535512706245107
891 1.1321602356703346 -20.462407957895277 18.066326274692788
6050 -1.6449797879325483 -3.244437137294528 -2.4928493810883103
6057 -9.498978067402282 17.687150240061875 -21.52437182959544
6051 -26.93903002605579 -9.70545899514958 -3.2695417717760007
6053 -5.069169382463915 -5.541184630405555 -0.19028498584874579
4843 -12.119569837534847 -17.22068636163689 -3.66735517070264
6056 2.364423956943909 -6.432471366628259 -4.582873052967072
3324 1.0110943577447775 -6.955999396660413 -37.12454988752053
3322 2.6602620151458103 -9.397012509710796 -23.607576093894302
3323 4.363911790942802 3.902460287023301 8.676621289671939
4849 -0.35932732685283003 -9.683207930441437 7.131543493851912
4846 -6.281409323729712 23.734307458749985 -13.135709836572785
4845 21.48202664699847 11.295483443854122 10.984652026467389
4851 -35.36643102525431 0.7788277424266686 -14.33392664158689
4847 -0.6001805514269951 -0.9304617315418541 -6.859708731547363
4844 -3.4305306121960575 0.04623833092152646 6.344299682365295
2690 -0.8034437281146706 -1.5531701713429646 1.6584724248079987
2687 0.8927004342256596 -0.9179227380700035 -2.422250941872508
2688 16.011612387564046 11.733303023772995 7.2673978515950495
2689 -1.3236582577684093 -39.74646178768991 -8.245879381101402
3326 0.14250508250109267 7.297077862722709 -1.8637704297771835
2691 -3.3611807064460746 18.87199715933433 9.930504609945624
3327 22.336116956035223 3.1203170012474355 -14.101462504249103
795 -18.088664034015576 11.172124063130672 3.1102728208926593
793 8.791657209241562 -2.7513719983714098 7.038194826446463
5301 23.884650926025216 -3.8864804945793052 -20.531040241041083
5300 3.254682391274885 -2.6918634685568636 -4.155310312647229
4230 -0.8234963139267109 15.653617393077566 5.532789123023257
4229 1.818709510141374 -4.721014086514351 0.20897893099328607
3213 -19.257478821935038 -3.1097415432934765 6.866907979199927
3212 -0.24873649177733992 -5.111335792196935 4.553186497018805
4226 -2.324972886539251 3.908695436417789 -4.692062044526971
4225 20.53874098640374 -21.476841091305648 -8.798875103716002
3141 -24.023876280015173 13.337156882582002 -1.3515085480378337
801 15.40554427660951 36.002825920498886 -19.447452960271974
4227 4.092024305551006 14.272548748395486 22.092802233980798
4224 -4.50674816753433 15.086634575260756 3.524350290902885
4223 -2.0369988802894827 3.33046452647705 -2.1430330230456747
4228 -1.1784776799408465 10.094172537590811 -0.21919318791387427
5297 4.122533515792345 9.07236803048983 2.3299431383654725
549 4.0240711096747654 -4.684891732852841 19.563633929776245
3209 -4.986585888022988 -1.4395561860288635 2.106145578907968
4222 -7.963677954251424 -19.053517774408846 4.828320557474347
3211 4.946279542171046 -4.3804119371441965 -11.327614591000522
548 -5.544259835774961 0.8173490359593146 -0.6122780197398617
3210 -9.239375376626537 -7.7384165720625075 10.583651194569713
3206 6.445104920760337 -0.618499970953395 -6.600715668085443
3325 24.330987718350396 -11.876364086678928 -6.954363503233318
3205 -0.01635847470973544 -4.474254540275638 16.288512391421182
546 13.190182873043039 26.197438888858848 5.238228983434045
3329 6.37744869761717 1.1089112636858973 -1.0259264195629667
1126 6.586571055171981 -22.619571572238222 -20.094756780236008
5299 -10.096993548504212 3.38864559309503 25.023751844949285
5293 25.725160650965243 11.07988175466329 -13.836212467739244
5294 1.6941172506030375 2.2576017584126977 2.9202816233311046
5295 8.785795277865258 -14.706214441427626 -6.821802300031463
889 -4.89665228554872 23.386551778011516 -3.7462557452693575
3014 -6.178424654896668 -0.5654158637606644 -0.3501513872166455
3328 5.9625569275412 -4.082408554806515 6.906362280596138
882 14.423811941633076 -8.719018341703142 15.610639217401257
3330 -27.283776366743083 -9.556231813292465 9.217475354331702
1799 1.5166762103781912 0.12184742177500382 1.3612859167720164
5298 -14.157612503224744 14.561561952077264 0.21931294015544445
1800 11.509526392566539 -7.037873310305649 17.948384157796056
545 3.8677246588788665 -7.4968696958872565 2.474562494952183
1525 -3.282469693698682 -11.91897038159121 -9.18158364215418
3012 7.611901538054531 27.551704345300557 22.84767072952723
3011 -1.8121104290283898 2.8417029080055367 -3.656396984009562
547 -6.277773545001303 -5.173583149979643 5.357077111364909
542 1.397934590271519 -4.825094885848127 6.946927308585591
544 -7.488557491960985 10.619535322443388 -48.91294001652839
881 -2.0955126333562184 -1.5403161399496343 -3.7690668540373773
1133 -4.541066660619982 -3.6479278542240166 -0.7262124534840334
1131 -30.956459798087312 -3.347497048732154 8.610817607009993
1130 -3.4276385793045803 5.050284041800751 -3.7738621577197584
1127 -3.432441124230478 -0.8921206125060935 -1.4905530081284188
1128 -17.471958881644994 -4.3388266174241865 -0.13782078347152912
1134 26.312592766717607 24.09392173030543 11.390310947378055
2177 -2.4458421473137038 -0.521058918652456 -2.98484035795737
2178 -11.243364554549748 4.793085174528429 14.92537569350703
2174 1.7802621649014385 -8.246331587183152 -1.4148067973582357
2176 -1.8185721508316852 -0.47829757595826117 11.7137969316645
2173 -30.817196652249503 2.5449555300317823 26.224471992992846
1522 11.169561657202662 1.067342153392942 15.522110433392168
1523 -3.3189386421024656 4.178422955100753 1.927798010919745
1524 3.241214151118144 -7.870010321694187 -14.037436622124323
794 8.180647959214884 -2.0017468351959278 6.389339657369334
3010 -15.718073177169325 -20.44488039002131 29.21450376141091
3008 -3.252722204776066 -6.468001423889651 2.443049165766573
3007 4.439787394800747 -2.6672168135645786 5.958193056455052
796 9.907275814031266 4.605378528426111 -13.503494864689655
3208 6.406529848296338 -1.8979246508709153 -11.00580491269988
543 14.436134267610823 27.94019927295857 13.489679311838563
390 19.93202803608641 4.03375162406726 5.542100604234854
874 -12.829675020306945 -11.029398830652342 32.747194987066315
875 -0.6290072489855199 1.8913644802939202 -3.4814271722174333
876 17.037086655218868 22.75062553533521 -18.55106059903171
1132 4.767575032971507 1.5360691762544512 0.7120214800164578
878 0.034280025502290604 0.9347168429556537 1.9415111260064475
2175 6.903254219588402 12.116920419940342 15.682377098315973
1528 6.821971412756262 10.296771168648396 -3.8192631662618663
1527 -20.995890968481902 29.592439906555345 6.622663042062541
1798 9.001966103823268 16.36268926803289 9.422855065084496
624 31.463765492153748 -22.375760295866847 33.083463713961734
2170 11.289065736566528 -32.181855243810595 -11.404510278869013
2172 11.683715987540122 1.1623714343426308 -1.0746776840807466
1795 7.021821559933959 18.435650073790736 24.315866178806385
5920 22.93968776226943 33.48523248921004 -19.422253030394607
5919 14.16812953825442 -10.87318384576982 -0.42151164319750273
5916 2.6164359263426396 -4.772268844270605 -1.5751216114289586
5917 13.841467274394363 35.037066428682444 22.600757624205347
4686 1.9870787199278057 10.417211921322457 -15.599438486028857
4681 19.559709094238002 -21.144248617939915 -9.237386633414825
4687 14.227129404976944 -13.265996582991257 -5.299139285801804
4683 0.4699664485033721 -7.170266323616486 14.360006843699441
4689 -23.620981438462728 -4.935859292990773 -8.510518109418589
4688 -3.095360091901192 0.7772768114163493 -3.0621128706613985
4685 1.390623976256925 -12.229765965847886 -7.313673695077918
4682 1.8611706364520832 3.587951699078917 1.5202884676452622
4684 -15.027186033038474 18.48680578859372 -15.354344776999076
1526 -3.0542231928182404 -0.7705217796509906 3.180478416877855
679 1.115719378596034 -4.630049276425487 -23.098864806458803
1529 5.325391633428699 0.521449670938754 -1.6021212079731144
677 2.305224048157756 4.716229375875564 3.84070985033415
680 7.64480056766197 1.9008105590633366 -4.995821333140901
682 -5.093220012533117 -9.457164105069257 16.80676286512092
5922 -3.468382118141822 -29.265639361244276 -4.438288913958349
5918 7.214017389062386 -4.889571731957203 6.186879932616394
5921 -6.746162652960681 -1.6530065359472177 -3.7589435974280145
5915 8.551264712454042 3.472237056371241 2.988478596698241
5914 32.79907668354105 2.9425333445687825 4.11652340541702
588 1.4794521718904392 29.46567347426649 0.658182698539258
587 0.4006999512482649 -8.615027053527463 5.435217141528582
1530 -11.600783763801882 -25.363622646318035 -22.58596090732681
591 -19.635098916058446 -0.9563451591778535 -10.792746903743966
1229 -15.326004977958133 6.641256532648373 1.1316547126491563
1232 2.906612463230862 -0.48823705090227 2.107981050553929
1233 0.8101534315631892 15.810554350446234 1.1772587014915277
589 25.56008496732376 -8.03504333558043 8.362931691975483
586 -3.8528702084514768 19.5426386604786 -28.955374137911676
681 3.432905420535329 -23.553786641201803 14.407707983162643
1231 -0.7238536362934751 -11.865355651722677 -0.6986465683593178
592 6.460357862538646 -14.042956857906633 -15.748583432993179
590 -5.666405362752309 2.073337102033149 -0.9971307270478115
678 -12.048150934442852 -36.05290678754824 -20.03051920851284
2026 28.60463795554348 -1.6882176458335658 -7.178265123166412
2029 -6.626933855067907 -27.537044359862893 -9.48141214351485
2027 9.215112986996463 1.8354314962481748 -0.904589236489395
987 5.236153373139249 -3.5888114856229003 -7.758237149337424
986 2.387087121193512 0.24490640837693758 4.228292630017838
676 -7.5091201928327145 -11.478645221325111 -14.496317560287823
2171 -0.27969563530383523 -1.6457828234056706 5.657627449055909
1226 -5.289052935325198 -10.626299323447096 -0.013420282040764151
1227 6.1922499377183025 -16.324260659248075 35.51755715152692
2031 14.456941405244898 -31.46511256207164 5.940684920630837
1230 -0.7423265013757984 -5.208071377486689 -4.981933274638289
593 6.134080397653609 3.4253556128005016 -6.840203810682483
1228 -19.369065031518378 11.13482007252178 41.475194916759094
1225 40.96013210376617 1.8203691258251495 -9.378384224218987
988 -23.079087256963277 -13.786968346484095 11.077068921470127
1797 -4.056969015041806 1.3773241020641085 -20.104109358073696
984 2.8215438507849964 -1.7344826390018953 -7.6270074454397525
1623 7.323575376782651 24.00759396739575 4.440826142747912
684 -17.384413519833966 -11.482175117627614 -15.744630992041767
683 -5.579491393652542 0.5790928901049992 -1.165308923817047
594 13.366012051886743 7.681043915177214 16.336033829365398
819 8.465284832948957 -5.805389205125325 -2.0048330647344788
818 -8.925171765734678 -3.148172940310751 0.1869152643022304
983 -8.596276954691257 -0.8213939693774233 1.6142003503572329
1628 5.435804387020751 -5.669422493655027 6.207246853166723
990 7.8482456943246595 8.897233138879695 -9.128508832174312
989 1.401141247258484 -1.9596724592403214 -0.9687084914492476
985 -10.61167487110859 14.717692679708184 -25.077413328215552
815 5.526255582132834 10.138529667794302 0.7915726156475816
1621 9.691813416592533 30.6212364661845 3.4211416328074526
817 3.136267891110666 31.84569611403898 -18.87675786193907
1625 -6.601998827048083 -6.715065076742321 -2.851685597788465
1627 20.236230154054592 -0.5873580808581228 -23.603967040407635
135 -1.7372379797216422 3.41472236990435 -4.266420139363115
811 -24.963754005560727 -22.266550831223007 -7.223701442550117
1793 -4.340630758195707 0.5331681409807024 7.517124654848073
1796 -0.8492087523435007 1.9147884776138917 6.525687381837446
1125 -17.48025030088115 4.659052778378589 -24.61543191292057
2449 8.724755008610018 -18.8283482208352 6.582336147264392
2030 -1.6037207517728689 0.7914575715394244 10.70504542848013
2032 29.016767358249375 -2.0625290759386403 -28.66863183105861
813 10.775054987722278 3.981111012371385 6.817365553286058
812 2.100744837437155 4.922959029129667 -2.658290541836146
814 -4.779749447549139 8.846115139352158 -11.205772740499205
1792 7.413140286819254 8.17505736243753 -2.95390710213824
5877 28.629973700624095 26.065435448736757 -13.953386526437097
1794 -14.476111915021017 10.165842878677514 14.5187638683138
1096 25.674029208311016 8.550200597606802 -17.00051958535596
2860 13.729752766842992 7.393584944505701 -1.1135098770336334
2452 16.406688776111057 -27.49948754613485 4.288543285643492
127 -10.111865182816064 4.879512711320244 -29.267980708895085
3353 2.396619990700626 -5.021772635994255 -1.5414729477651385
5689 11.673257510157145 28.98430691305776 -22.272984794213205
3354 21.943211695881484 36.76037052056671 6.244952308831969
5241 15.582058974490261 -18.18437578193424 17.64993319406408
6202 -8.877911944091002 -8.4988645450807 -18.900352253218134
2028 -11.054331434849772 -5.503795883609449 15.745252320428996
4092 -20.67619994038545 -15.660166872636593 12.936157974734662
2033 4.029436584949307 -1.0357950848130362 6.1139480062413645
3355 18.61476372599745 7.180644318785483 -4.0477283233413015
5692 -28.003885937125418 6.177563976712754 15.437431438025014
4543 19.30290698636388 17.238224913454353 -9.295461681570611
5243 -2.1367943274951107 -4.592403706114196 3.297478529298072
4094 0.7705873118930969 -1.3700052882652123 -2.2899173814214686
4095 23.496016776450805 -28.220519695140652 -0.24168269268304884
4091 4.209961156560491 -8.5461824708044 2.653226568323521
5244 26.345546223955836 37.649445160711586 9.311599761028544
2620 -8.91228204341108 -5.523071454977201 -16.573879072498055
4090 8.870128122621706 -11.289594357357645 0.7397913933779139
5240 -7.965052184666265 0.905723690603012 4.467040924108612
6209 7.499088342601751 -2.9140649188833154 -7.145944559765351
6203 2.359399675739656 4.985866876258759 8.266886106486556
6205 16.436942749435048 -15.592707348612947 24.196255581543955
5695 -3.891267233876332 -12.553627380865874 6.584798014426762
2623 -31.165965142671833 -14.693992499349458 -0.7877112229621762
4089 6.9426779139241175 -13.50418561765381 -14.717139883593212
6206 5.900817784483656 5.733341997385825 2.8484190321236924
6204 16.11460526087539 -1.2744533599565582 -1.3308595518914486
5245 -7.984778575106841 -1.7759054841095776 3.121861847608965
2626 -0.3087199831482252 -6.924096009025628 8.720102984808202
6208 22.043365850212652 -9.901828447720723 -14.467898892814011
2621 3.0611493344342775 3.4116787345832043 1.164496354095404
2625 -24.69206475571121 5.564262725241334 -12.49243646994604
5581 -14.296709621256813 -7.540683110124268 -19.359328484008238
5584 -6.161439495271798 -7.571305272152721 -18.562303649260596
5582 -4.5124786437658635 0.5943725228164447 1.1254265228901548
2627 -0.5199530499355478 -0.5510828497809249 -1.6705670383684186
2628 21.650577145801606 -22.983063205154178 3.0221903699406987
4653 10.000610593878953 15.431596351179564 15.830767018150546
2034 -18.215888485201017 2.407539116504192 29.1516104575164
4652 2.5248716095348493 -2.870948809864311 -0.9232737924764491
5587 11.342010092578949 -20.52629234447761 16.20760742009334
5588 -2.5960355145248757 -3.5388391873402822 1.4009465806819439
5589 17.962078715414282 -24.847225069457483 -3.5187059259762723
5585 2.9398359521862254 -2.2147342354241446 -0.8021901536830094
5583 3.551147741580368 -9.615702320918583 -17.29944787555899
5586 5.631940027034433 7.721558758628934 -30.40698932511472
4093 -18.99003379595871 14.30975747287031 -12.056462449323359
4088 0.9079083405565915 -4.974219969251688 -2.3452599059606305
4087 8.882299275464092 9.38206259309687 -13.330999219443422
5693 1.9399304884255641 4.755687964865287 4.079181002359796
2960 -3.9690221162580395 2.0735746524621677 2.4844219539941754
2961 -20.374047418760053 9.581137543619665 14.291928456910728
2624 5.469951741573476 7.911146723714117 2.885055552906327
4649 -2.153397623173688 7.6677237216338625 4.813974395732474
4650 -22.647624558751414 17.36836943853247 -5.167532867643315
2958 -21.82486157584167 13.61508846871457 -3.296034260872475
2957 1.122009990352086 -0.6720724578506325 -4.74615801245604
4646 -0.8821005229880032 1.2006343562398702 8.041858575297818
5873 -0.10238207092736763 -6.627555205031534 -0.36207707413355605
4647 15.66026685270919 0.29547247587652414 -0.22949243366426905
2460 -1.04609484548165 32.51833647708222 -24.084718085925207
2959 -2.1952051818692526 1.7311546649726832 16.850250430032368
3293 -0.4586358104818248 -1.5418886697922323 1.559576724591469
3294 -4.8287137765135295 27.267540920889264 3.4396010615685704
2458 -0.5025768186178641 -4.889926368075588 -12.8985325430126
5869 -6.667632215817223 -15.116017619598034 -8.59303002372746
2464 -6.716043054806665 16.3014432457134 5.831734941553703
4651 -2.671832691784665 55.263738180867904 -13.557903227645877
4645 -10.492215018036193 15.129611983154968 23.997910649682215
3290 9.957788584652292 -15.024326013090487 0.43312954111013513
5876 -4.534033558973701 3.4210638078424727 -0.4129166200937403
3909 -4.7653983077205995 10.324532258874207 -12.198791329315128
3908 3.812547182153235 1.2039893333603804 -3.8050603216626833
3910 -5.79433342490214 -6.902035890503507 -3.5088539483821712
3286 -12.050506802418024 7.9661236488296066 -14.653080791757267
5871 -19.206452458919188 15.789616208102105 -9.087360881474307
3288 0.7090572345645147 10.510495162524803 -2.8760330690132965
3287 3.8698239502890024 -1.6241047714877381 -2.5490691088555995
5870 -3.7278176395047145 -1.3074937245893452 4.200485587192972
3907 -14.489395576878145 -12.982513527732902 3.898247775360004
3289 22.47459348226787 -26.71658309649894 -3.7697446043068203
2459 -2.8666532471912642 3.838757571461094 -3.9011567083146796
5696 -0.4790261228761565 -0.2507135312526629 2.9693326985668187
2462 3.0091919320166234 -2.9037469133909277 -2.5769993053946227
2463 1.9750445508735497 -11.492314151465385 10.668547737277201
2954 5.277989615292376 3.5890835818831577 3.788761194757927
2955 20.213893937695364 2.102289645079119 -23.560920656544656
2953 -32.12681275760818 -13.924369589045053 9.362024540111085
2956 10.204699599186881 13.209400458371395 17.62145707087985
5875 -4.177766644300454 -17.68279322423741 14.142185158406452
3805 13.173443729595027 33.64306908890445 8.83336957030193
6210 19.882881772147947 13.45075408680285 10.419287457866943
4538 -7.7321943010343 -4.256023990063612 -8.810540402400095
3291 9.515756924376417 4.107400636003547 10.853023094202904
5872 -25.551173490172054 -8.456737505068128 -3.037956947771389
5530 -27.600550027697892 -16.707592881630212 5.274250664002227
6279 -4.142049854602546 -24.124876128537068 -5.607036033250497
6278 -3.996891143176135 -11.822020875344782 4.906325700239616
2078 3.678961414534652 0.7151354194236734 1.0465593725784172
3195 -24.82009769820834 -9.88025202751302 11.450269726079787
3194 0.05313096366389313 -2.4427913742050764 -9.94049655619651
1669 7.386531693377988 2.7295403824092963 24.890393870065985
2521 27.83581761451333 -0.29265103153774313 -4.96148876355807
2522 -0.8101962890722014 -4.612374189729679 -0.7560774739208195
2523 -21.30672319401556 -18.628280385163073 17.309674714459053
6281 1.0058255734638084 -5.4431979561918515 -3.1843070586911577
2524 6.357903026203594 -11.4242023482955 18.190555625101176
6282 -4.458306298925695 4.197458955699187 3.5854706037912374
3193 10.135145650380077 -0.2590697547419976 -6.607228772018212
4329 -9.285033928271545 7.104420879833928 9.128707826230555
4328 -12.08884013749783 -2.8527186949738814 -2.279341520509637
2074 -11.64295845458539 8.242063609185745 -9.473166383263731
2071 -5.5343072978692325 10.731897401379044 -6.252965109901452
1218 6.003345514430499 -0.2749651343980267 -17.932677586972126
3192 28.218409391646166 -18.23640929810983 6.899721719603887
2525 -2.8656820789686397 0.4407212636421172 -1.5911493908440115
2526 22.784168598167287 -14.946478724248523 -13.342033595460657
3755 6.765870435279183 -2.1820438174840575 3.4479315855608355
3756 9.91430235787961 -21.846830106419695 -10.106469228983505
2528 -0.5459203601447548 0.3332640756492704 0.36898769477854176
2076 1.9575934020042955 -0.7929177001433664 31.2378354323726
2072 -3.1596278150780064 2.9338480273628234 -4.296094327663054
2075 2.6745725082270773 3.2050393031462097 2.9407619780515826
2077 20.267296650402 24.44630550257894 -14.734275800650998
2073 -15.220544493090916 -11.568542230006932 20.909406694195898
3191 10.971438208052298 0.28666805723679367 -1.680361023294325
5703 23.748574928900467 3.7525407686871883 -29.97930707611079
3190 -2.0835297044530585 -24.32190098189966 32.40475431618289
5562 -15.002899993790951 -0.5395004282903382 -13.227751918528028
5561 8.840912001963618 -0.1104419034191011 -1.8908918410583053
5558 10.586697929430608 -2.5063539536939774 0.3894075953824435
5705 1.0970488145680715 4.739634698579404 6.859477010136063
5702 -1.609196788199293 0.433405946722361 7.6471883324561505
5704 20.64593613613151 41.36916761480395 -6.149644435388737
3188 -6.943882789343866 1.9562256752894733 5.899586267958038
2529 15.049188567618947 1.9091453733330404 12.475061219526324
341 0.2934970499205139 1.9677354199822286 -2.9863644252220003
342 -5.297748416162141 20.556045642582443 -2.2703816587082053
340 -8.37688587907341 -1.3236607987755462 7.122675216961524
338 -0.20673744511422618 -0.4003550676577197 3.0622895710233444
339 1.9110499212843104 3.00831238579902 -18.467380035504902
334 11.113616932913587 -26.07426743361656 -31.05178487828055
335 -6.912219647615771 2.0702955601909063 -6.093283752132513
336 -13.524652750240731 11.770938479580165 -15.130823242504764
337 2.876872070069197 5.9928031345585495 2.250443493503076
3761 -3.458499296492774 -2.21461800578444 -0.7422750250934392
5555 4.0294220150553315 -2.212326360474883 3.9647553800042896
1507 -2.1594253496505296 2.283967080901231 26.337912745330367
5557 -2.9712359293743207 7.2643178817620315 8.142058910014537
5556 -0.5656022503139003 -14.613256139392101 15.969268487832496
5700 6.378420614193237 5.748516075360907 21.395151199197134
5701 15.090629905252051 -10.474201966533098 2.191260117952838
5699 0.9828729025536183 -7.399396024111357 9.245762787378606
3762 16.463007105936423 8.355945094158885 38.802821768873805
498 27.019454455785127 8.656914909564364 -29.440343517950087
5698 -11.20194365485236 -16.607070902151218 -1.9529216610472964
3698 -0.23023060619920938 2.8594495051394753 3.4588618934150666
3758 -11.932559475019335 -10.149561314217005 -3.682687881457213
5559 -1.5568476346540088 -9.078477930088097 -36.413953422902175
5560 -12.357019619234334 -1.0210915108395033 11.073858060234718
499 -20.638067558775465 -17.861848226068265 8.677674471189887
3759 -10.080677738311111 -6.64768636728768 -0.47809786743827576
3760 -2.0181128464863667 9.062603316352805 9.614057108144227
57 -3.7815037299753738 -4.118506557590885 19.08775310917482
3187 -17.693990432973717 -11.037186396055588 22.46065648918844
3189 -3.354148578179932 12.204482648832947 -12.97269287973986
5554 -8.91056178441926 -22.217842148101507 -6.46438701020355
3697 23.075724046585105 -5.4817902901941435 13.653700087758283
3695 -4.035449036946622 7.447497973507745 1.3055531158892495
3696 8.079392740519834 9.317870782162396 -4.4388928286594265
3699 11.848082137799809 23.067740426831786 -20.197328961996178
5625 7.994746841703233 -4.411846390722755 -24.195862956760614
1505 4.073939201281972 -1.9849916302386108 10.234923215537997
1941 3.778677709940603 -1.9506065732866857 1.2371649544336591
1939 -11.086778146397542 18.06471286029534 -19.13547860893827
1942 -12.631622441338594 8.174074580661413 9.741201016106483
1940 1.1748960214191904 2.4978756517768956 -0.721458943015973
502 -13.418611873757976 -2.2670592401768204 -13.785342858117211
577 -21.862868252474872 -3.126694371607368 -5.046376440360529
61 19.053891170330786 1.2652226123841543 -0.9898802629004161
5624 -1.2467218776387827 -0.8642687035007811 -10.293929741979609
56 0.8401069397694478 -2.173789316621492 -4.146394634550007
55 15.819714488667687 6.027709317988621 4.189526213809815
58 -2.864229271444829 -11.336720963274393 -7.594890105841926
1506 -12.879610859114134 -2.682352635048234 2.061502108463687
529 12.18044757321452 -21.67575342232754 4.029449856026866
2684 -4.597015499229005 1.6846064575496602 -4.463941281998949
2685 22.435336775954923 -16.494324041733872 -30.282133367692193
2686 0.146396746350803 0.944933181591807 -37.851874879314046
798 -18.707714971021662 6.5160344441632745 -34.37924445921919
797 -2.589763546528769 -1.292029426098629 -1.3888919768285803
800 -8.139030355247698 1.720911823966638 -0.06074433511397478
799 22.06223983016085 9.55607759021815 6.097245816952803
500 1.0252821667059893 -0.9602433126565525 -7.494965979153531
497 9.245057583391736 -0.882561614738055 1.0938821238905254
496 3.9232611056874127 -5.602061194224792 -10.457085633822407
504 18.93325820914422 -3.805465886473192 17.612247969710037
503 -1.2048753969662345 2.992907013703664 -2.368764995324191
3009 -26.0272247081366 -6.135947586301753 45.9161499183389
2683 3.360152333291373 16.092207400321055 37.52819872843275
5841 -5.754566875369134 25.919301028650967 8.405554068396253
5840 -6.612355256118709 -3.1648308731817583 0.9734312643532862
501 -14.269524028060035 5.267301830238242 11.166556774437941
3015 4.784394639692351 35.02692488050144 -8.116779838373045
3060 20.04284841488887 -26.23029899489522 -16.53115962079526
741 28.53116648830658 -1.4481260048826892 -10.82316287816638
739 27.15540439369117 -7.84859504022742 -18.942906285089446
1695 5.7682537149147874 -6.029126884009471 16.03316495437902
582 7.438786357047021 7.335160593749427 -5.227549863199004
3481 -1.981223491162665 -12.24470451513159 1.306221240430911
1699 -1.5961367046530373 13.585861612725934 -11.756545130115011
581 -2.9354818399507505 -4.350137209218939 -5.628753657216809
1693 -28.090604010849432 -17.87874401899285 -17.86306027999028
1694 1.241837743572016 -6.496491235992363 2.883259194317236
1700 6.358195049244317 -4.22358469149664 -4.023315570933292
1696 2.997083590562817 6.745016341952481 8.759142957040396
1697 6.226557699733568 2.8500145376460027 3.389612907007849
1701 -4.5100853397314555 -15.357047443547284 -15.453800232109407
579 -7.036470526830041 1.6513118684186077 17.84151193130704
578 0.49144206192372103 -0.2733644447486032 0.2827580406859028
580 -13.934770845903188 8.921483496268916 -8.284756117746392
1873 -9.893754099512265 -4.465289090794864 -11.874160724279523
3480 8.469202671802503 -15.08250979944424 -7.766505135180253
1698 -23.830170732612892 6.932400936637881 36.731074204304726
1876 -16.827884070416577 -3.3179819011303318 6.208164233299501
584 5.538007620570081 5.805479056344735 -5.610474708279048
585 -10.950841014750164 7.459031215046593 -19.046039326577507
1874 8.86847207134014 -8.585770739920854 2.5255439474981216
1875 2.573567808094268 2.2732197512276833 4.2247890913958015
3059 -0.39306133940729465 0.8736445564645566 -1.133271078744186
2259 19.462921812742028 -10.173892907836441 -3.4556377409071914
2254 -14.190414780757024 -19.522008921015154 0.6670443133950599
2257 -5.11710611138203 -17.105343291231875 -11.777114783832545
2255 0.9952797774534354 -6.313192609614327 -0.7629195489493865
2258 6.589778521802896 -3.45391208305984 -3.8225872728602566
2253 -12.780052878560841 29.62217634212461 -13.571380558773905
2252 -0.020553772759029934 -4.978497372253014 -0.0988728345616434
2256 -11.60046317228343 -3.1361967817430885 10.229259497578584
2251 -6.426165619343783 10.053408448705982 10.67627740768058
3479 -7.872347036823801 3.227107444928125 -2.05829360991007
1719 -15.279832888389512 11.838230101179184 9.670679367888734
1715 -0.8291127517201671 -7.007497367528929 9.885796773667488
4464 -42.58067325334856 11.824306189014422 27.161980084115218
4460 -8.295966619986578 -1.4788485528087418 4.5498479438206845
4461 9.573688030427563 4.495217082643838 16.36851325792827
4462 -13.53345550108978 -8.76060835997774 -13.081932197831543
4457 3.639183315334407 -0.6934518676631267 -0.8519354487044293
4458 -4.726582061516474 7.808857413601488 8.153134975777798
4456 -29.187808523555606 21.654180162189995 4.5900853073733
4459 1.5594190809938322 3.861613911220374 6.5668853996106655
4463 -3.428235929523868 4.1221001826301 1.3392012860984899
242 1.161591923379331 -3.8036920824124967 2.2574188703119322
1711 -22.51807886300161 -10.050640485754816 18.304633593665198
1712 -0.8755327137962621 -2.6796956364015796 0.2187461892173813
1716 13.535371196810411 -9.824234845357605 2.3307128587313546
243 -6.61724537741155 -25.387372932023187 15.35520679497585
3482 -0.38997250741697886 -2.0205012947198266 -8.244336259981674
775 -2.2147887444251313 3.0476287340969965 -1.20888771081929
3483 14.424558753916575 26.62375270864818 8.788488836732345
778 -39.559102618508554 19.82988800386748 -22.40269763986715
901 -2.8262771217786518 15.874926868493215 12.568379990955112
1080 10.379962196518132 9.064374732146598 1.4232536504706172
241 10.478125939357056 5.426057192345562 -4.777200695724796
239 2.7773466099874424 9.52909083803594 -1.7171029442384647
780 11.10994482464942 -1.6227191252862216 0.1386280251787014
776 -4.66060241476382 6.644004629634893 -8.797880231176277
240 -3.960199510285984 7.963149020293051 8.133604209081406
3476 5.937874590431046 1.777873574610255 6.346502298919229
3475 21.24799427087894 7.749510294186193 -15.745101330609405
3477 9.282895767935964 9.028459922739799 -18.889418516946872
3478 -12.207060424983439 25.76373388591354 -14.825553899960303
908 3.318188298231193 -2.5503685719122102 1.9112332312296128
904 14.349824873037473 -28.055864358667755 -24.342302686943928
5837 -2.4293140547202503 7.085494587136443 -2.127749502431658
5839 -16.90785152297633 18.195189699753524 3.5578892521430263
5838 7.3954754476475575 17.855217219522814 -16.647235739056125
903 30.083282179547936 15.688727562388921 -5.436353458087877
902 0.11782797553276758 -0.8671297833980037 -5.746973999492648
906 -4.332624450788624 23.704928067404772 -0.8571737881240801
2231 0.3208833843313424 -6.341996272442756 -2.5798027085149693
1717 -6.574241785838981 5.688536333670285 3.856479497779132
2232 30.52620823421843 -6.107018307192327 10.85016958804838
781 -17.394927100444573 -8.804913904463088 11.163505902401276
779 4.337356168989469 -3.1821066814230505 3.5002097940653867
777 10.109210891644649 -0.40460394853371484 -17.05872737220541
3833 -2.085424517278807 5.7605044461466335 0.4431719051159978
1092 8.70763139912172 16.663400130679932 3.5721866759615506
3831 14.491450655728311 12.51240254339153 -19.26243957155826
982 -35.947506216028025 -12.17219759674317 1.7261448606504628
5890 -2.8009991352815042 -1.1522201670388756 21.51063088674745
5835 -8.166123974479296 -9.671480388983667 -13.433421996568155
1714 -29.82153614753181 -20.487390682672405 9.366848241172882
1713 3.226844128472246 6.32015270170968 29.608988856020332
2821 -22.916272887630935 -11.530730667234879 6.3740800762757726
2819 1.025373091637075 0.6256753018244271 -1.8710991958057515
2820 -45.61570174740721 -15.857882306643463 11.385624316948295
2818 0.30414328323300055 -20.81983877831891 11.071189440265892
5836 -24.0204957662489 16.784709540723465 -5.808804891684934
5834 1.4763702534547756 1.0993871327204396 -0.4674075761951711
524 1.5616470489040362 2.292219184977919 -7.619166111269702
5833 -4.482099063185884 -1.9482716117112886 -15.994092547707638
4933 5.914042549152512 9.09121019480427 -16.539183703734707
4936 10.239407120879294 -3.801649121990228 -3.7970585878445453
4939 -3.739340238593149 -6.071663566543316 -13.42462751115109
525 -1.3819808647718546 -10.54164278081289 17.011635733904544
909 -18.27184975535039 9.677603118213874 -4.293204274766287
4934 -3.3127275720574163 -0.6371954240735612 -2.794141610499504
4935 1.3632613732034495 4.327036431616374 3.6935744478470958
4940 -4.046010703475255 0.19174576138814525 -2.8799177446834365
4938 -25.66296713723388 -10.814311390592875 -14.47530656714674
4937 0.8093175281711132 -2.044269989372619 1.159183898840881
6128 1.4929929020749184 1.3972992226495717 0.20543424925734688
4941 -18.500924973441872 -18.459580833268117 -18.997140600378383
5825 -5.693817393793443 2.708117295288631 3.7929749429836312
1093 12.770842183179912 11.851668263615727 -7.0492021734721835
1098 7.998164107507301 -12.925069315712351 -13.042711717063776
1097 -0.30494604517799573 2.1659628032168747 1.8988338066788337
1091 -9.874797847800167 -0.9060928487636629 2.188126495145645
1095 9.104158831739602 -19.046239386869296 14.04553311033619
1094 -4.879524362161112 -2.2835880057104214 1.7423319225942095
2994 4.438914289984656 -20.88473873369588 3.7152446303800395
2993 -0.4890061097223249 5.422468908217133 1.4328733069099022
1532 -5.809696394797755 -7.076516287827085 -0.31712389137266545
1535 5.590256486960744 -1.8848010503440595 0.3906248258415829
1539 8.985860254758576 21.0914744683864 34.67442474721199
1538 -1.2769553626342691 -3.556042892242942 -8.718494934959837
5829 -6.549928353804144 2.227235449066315 7.918878277272966
5828 2.9844371612813734 3.1221404772919144 -0.5533997502156067
5830 -30.91150353920655 5.277436291178245 16.051857266344477
1536 -34.46254504657901 29.628500784658193 35.51344043151696
2996 1.7337605074865077 0.5863961924611668 3.113413446224851
3276 19.138782798499747 -2.2831388154901404 12.013782660027832
3275 2.3151069150350807 0.1863978280407945 -1.609984573680796
3830 -6.359671973183258 -4.606698108055581 -3.3544575415754565
2990 5.666075565016459 4.529733066410396 2.909714867030501
2992 -13.052027021815745 -6.9762502130810695 5.68007152614175
2991 15.121586295927882 12.74433862927676 4.490285061030832
2995 16.40206677654501 -52.41510387324366 0.026724141820955376
2989 9.340705624778128 -8.139743579549254 -32.362356669416044
905 1.1887740245278442 -0.03756572933520997 -3.6560523741854607
2997 2.98153597607263 -15.525719214091243 -15.30066896415311
3827 -6.421957457422185 -3.061574740206211 -1.2046396658929983
5428 -1.8063526101261682 -21.632001521742524 -11.699668869674685
5292 10.493977709539573 -10.344449531394059 5.7318634921528915
3826 0.14882987112263013 26.078608027702085 -5.363003635144254
1533 8.764075283350302 0.3081493147130777 11.46687362352618
1537 -30.155818198277863 -13.340689027236465 -11.57606835879056
3832 3.624085649122105 1.001475198118826 -25.129759484336365
1534 22.528604320689805 43.42574633103523 3.582999875843103
1531 1.3650314063931341 4.067562502784337 20.86170655418273
3828 4.505564568909472 -19.154209797997392 -18.940337208031824
3829 -15.13466271303282 -25.043396351984654 4.71009906568339
5429 0.6452354804728953 6.951504240499184 -0.8731184014614073
5432 0.8869000980795588 -4.833184478240447 -2.5004623721537746
5291 -0.7585285542685449 3.4418137694682645 7.410035460881281
3272 -5.294706369609788 1.029305201362662 4.326057698860291
3273 -7.051889141393821 -3.522261850955444 6.411362329223051
3274 -0.6698400339922932 0.5802816554824923 14.596868690118521
3271 12.92684223333601 33.09176821127848 -1.1818602280698136
907 -18.017977198383583 0.3501010381665307 10.775231591531488
3270 -16.457357902010042 -5.211779081621715 17.71985405094303
3269 -5.904771403187533 6.509732233210914 0.7092122458068403
4423 3.970037992501282 28.393362227182113 -26.330437106963515
5433 -46.22967837623942 12.551365816160322 0.976564388678511
1497 31.978312192810147 -2.308300189267574 16.1601578391419
5352 -4.569588000346833 16.31008783268639 15.785707139356044
5290 5.857445273181127 14.183387998615677 -17.70045743019569
552 26.772337652761255 27.55118322618792 18.182797110063103
553 5.948510724645275 -6.7436100410248745 -15.46729353212163
1499 -2.5832106844644174 4.2081062523424055 0.6355443980814499
1500 -3.740674545070277 -12.193438562808382 9.340212577223067
6124 13.913652424641608 -14.922334748360731 2.941693029785419
5288 3.1851770873796617 -4.794051943242155 2.440831867217781
5289 -18.009598904401614 -5.2487591090155155 -3.7508690647125573
6125 -3.3661856812374658 4.850988978304919 -5.075507401165067
6121 5.74057169255307 9.463810304685241 4.0776834553975
6122 0.5391474239349845 1.4873638469804578 -6.6391246017901295
4326 -39.118450567764434 -4.548304056178245 -15.146324437020233
4323 -31.618963696869955 -11.909919644444201 -11.103392258714068
4324 -9.2963684645061 -1.9143114767605176 14.466073462619923
3565 -17.3456457445322 -29.325863797870113 22.578393444560007
2461 11.181311011135076 7.182258171128864 7.921622597178877
3913 1.4501118006132698 -5.268179640087772 -23.05646555858422
2271 26.09325890932445 0.8932759893105827 -3.5928353148969627
4325 0.1968870036024468 -7.899123300237099 -3.979491274725736
4322 5.248449227151055 8.805219227955721 -2.092920171647821
1282 -4.479920309348774 6.1807529434045385 -2.0677639215506907
1281 17.90795578958218 15.022795824388172 34.04354730417723
4321 -4.691454195074479 8.09716315553015 -16.94526953546632
2465 1.0261953925588734 -5.945774607925244 -2.3105102887110016
1503 -8.57867837376853 -7.011323102124593 12.659158434409742
3912 -4.659791775342973 -18.428450132630818 5.22585656470929
3915 -10.189883885194732 20.797250545794455 17.442473416531506
5697 -2.3375660584732545 -3.458117748532616 9.52998797761009
3911 -5.570134220512358 6.27450370267264 1.6683613406215152
3914 -3.194363551676776 -1.9070284269303859 8.618729024492474
1279 -17.71649116765729 -5.648491338085576 -12.754251544205864
1280 1.7036545817082576 3.318127351749021 0.45973608869645893
1720 0.5735911624869083 -19.9241590877704 17.098416988628117
5622 20.401669323029278 26.62872825114148 -10.93023838264916
5621 4.205135094657322 -0.6492416837730067 2.60121227456418
550 2.653204289816367 -16.44600112806213 -30.572768088440224
1726 -27.480750834939172 7.426867215489486 -1.3631569016225065
1724 1.494396726604555 4.366771660694936 -4.950592007504082
1721 -7.467564139670414 4.148004487027142 -0.43823209233524724
1725 6.116258360244262 -7.987851068962827 -5.399262219941784
1723 12.87107948432362 26.818578187030823 5.034284837244893
5620 5.657183435714129 -0.26668920207950547 7.621280088761836
5618 -2.4858355092725892 3.6717742927355554 4.571100056503965
5619 4.801384540249924 -2.3681490288766813 -3.78544465553381
6129 -13.284977988830343 -5.37338333707235 -31.66330866206916
556 -11.168960436391288 -2.6238026416551667 -30.940051283423596
5617 2.4462382151598456 -0.3605222283459868 2.658353159240216
3268 2.588028437026149 -2.441482526779142 -23.46173005089122
5623 5.572392698201195 10.797547480314856 -14.970950965057046
555 -0.2408888187471382 -17.89725809341461 18.015641299560496
554 -3.5866290178547664 -1.7464613455842362 0.49912157670392193
551 6.507965066717653 0.18738537660386187 3.578828435829018
1287 -3.2958019203339153 -2.135266523368955 23.44716411502041
1285 1.5761127165288862 5.214296286177358 18.943571397592954
1286 -2.7626407977780763 1.2047313968007707 -3.7476170015310877
2466 24.80105122778486 1.6466625555488892 -14.735832341585146
1283 0.2885935412858297 7.3216653950937856 -1.5484731245198893
1403 -3.181109285978456 0.5243606456647987 0.923619697006707
1404 -8.105967037457338 0.5751192337892034 -29.01474956264453
3852 -12.611246309455286 -23.438976119997353 -10.213852675754644
3848 0.29358304798513823 0.45711560705304727 -4.9981633814457975
3567 16.065813186017216 -5.478725987758832 -8.012268923776437
3571 8.846755440665284 -0.62963382182411 -17.49804609696934
3568 -3.8273140565178063 8.568593774116625 8.82298256531567
3566 3.6459594875057837 1.733896191721426 -3.021258782368109
3569 -0.36181698858755035 2.0128189553071905 4.719432398824309
3573 -0.6840314261942008 10.028553763104634 -40.13327895900891
1401 -35.238999740597436 1.7151351417071765 9.558231063661385
3570 0.20776242451322371 2.0193479564510173 -7.635723729456414
557 3.2712958071162705 6.244608359535572 -0.14345552785896967
558 -8.450513274662033 -3.799074122365284 0.2932941146886464
1400 5.249336187520326 -3.9170947856327594 -2.2335831829400923
3572 -0.4483548206575711 -0.9572235434470509 3.298907716991252
312 -8.04781761282815 2.200584194318087 14.260859091651945
314 4.614415215682143 7.313408710644951 -2.9020303639737755
311 -1.267400957263856 -2.8919840182891647 3.076434437053792
1284 24.327668513740957 14.849275367185221 18.37677551088569
3850 35.28884357109429 10.107657100815633 -4.615490555456456
315 12.22038040953334 2.066138772772724 -5.767475523779649
3851 2.1457121684170497 -9.742551722143139 5.7179621861403005
313 13.213307330756209 7.051227041066114 22.144661200772592
5355 -10.95346712581756 -2.1934970660881152 -1.5456479364151843
1727 0.37623001932554995 -0.23990272646787517 0.6885044314645681
1722 27.039711662631266 -3.012083763907306 -17.09904864768527
310 -8.487581028117528 15.4523597910813 6.760478964629251
308 -0.4560587107484411 -3.811917579485697 -0.08098957190038525
309 18.515238077896107 11.96323735883682 3.2856535514026457
1728 11.748463839708313 -15.211699400553085 -2.1492324283855684
307 -0.06236995186517674 0.08080044062020267 -4.931140911683366
5354 -3.100714206444143 3.9569723732713644 3.976018858919123
1402 -4.47791501017021 -1.5322771256208405 -4.868003975472904
3849 18.488623175878867 -14.596119487791302 -26.113868960914647
5349 4.563356114932638 -0.8713662211191919 -22.94443748049147
1399 23.056238236089936 21.422814218641857 7.423966161938055
1397 3.578879678783001 -0.9645815563534781 2.949706187055025
1830 -22.673965511223095 -17.612487067734797 0.17323151906476902
3845 -5.54218677455342 -9.189254179577656 1.0203163460450486
3844 14.654581513358837 -0.34495282423206874 8.17158154989585
3846 2.29775232524551 2.8372878973123425 -33.11264674037427
5347 -23.275087327062494 -26.104786980338197 -7.793447619934977
1502 4.710897393282884 0.6846777434569541 -3.539670849980589
5348 3.398014145834492 2.009551570861528 -1.4627124398752676
6127 -22.890796839997492 1.2351257038672219 -2.130963479245833
6126 15.195117720402878 -14.950854164613535 -10.65285160162065
3847 -12.223015742888785 19.61472995742646 4.010143833720308
1398 -8.366687076204858 -4.4162557413398895 7.609188811014635
1396 -22.862425230557886 8.56786216422688 -2.2264586384179883
4806 36.78243859935202 3.159499980090971 -16.912825374320775
4805 1.2522523654769995 0.4983472421259886 -2.348867598191929
969 -25.1434902512561 -5.700391768455123 -8.16689935773643
1510 -9.800046423011793 8.248121265925864 16.26555531603459
1509 6.958432370189138 -12.602606150131413 -0.10820349273524084
1508 8.134203629768152 5.784272262987763 1.2799869623037128
59 -4.0430851667840475 -0.941619422287985 2.395931875989124
3414 -2.44300731600903 -10.243628205785404 -6.0223693632225475
1504 12.547651276983615 -34.45717829432877 -21.0820508814026
1072 -25.42658494619161 -5.760093032205001 -8.642074599776521
3415 20.570105601759305 -5.845082945707597 -6.365333197142953
3413 -2.701484681417624 -9.51127945826203 -2.2057076560854654
4086 2.624493347037672 -3.374466843594404 41.960496501190896
4083 -5.876022659265123 39.50520171201519 12.907214849666824
4084 -21.326137013025818 -14.470496403343699 2.6012862508138186
4078 -40.67349191691757 -8.263957483974185 4.2266504523040815
4081 -27.035164133782096 -8.093731792606944 17.25677181470156
1511 4.75763189620153 1.537695062648831 -1.0602608256448032
1512 7.868425640161155 -5.460080177319841 1.7921064826789626
4082 8.584135049065473 -4.312420716607536 7.621567342333172
4085 7.870844814354878 1.6571738212971556 -7.130017117633878
5085 3.4340576400479956 -7.745357961699178 -8.817199274156106
4079 -1.967203849721985 -0.33124215073434027 -3.4623416418802075
4080 38.23272682072201 -11.345190470777947 12.44293163530343
5006 6.201939105270348 -0.7466481452055204 -1.3615300595726845
5007 -17.69338989433502 11.979803334753642 22.540155649951572
5010 6.450489018185472 0.8581778500540233 3.919227412450388
4122 1.4533840497349928 25.887576837768776 2.196948310022236
4120 -11.082908515496413 8.320270972238854 -7.597860393429638
4121 -2.5272378520838465 0.5314622115368014 0.15083833350292483
5081 3.043129735591026 3.521691049197977 4.933978867704579
4119 -11.475736018904875 14.722621508152077 12.251295316447107
4118 -1.8807589302683845 -0.9453684162847649 5.339513525540478
4117 10.379729483334645 -13.195161359375799 -27.9174356710918
4115 0.3839062434728549 -1.2338950424440025 5.183913828261545
5011 0.18759415611187835 18.52367512925179 11.135261702524499
4116 1.498477964416932 3.2513623739708772 0.4816730638746493
5008 33.787841526162865 10.820187423423947 -10.848390385825697
5009 0.7541413367726439 -1.882395415157603 -3.233489576872465
5012 -3.9535061020483706 -0.6689926280556374 -5.9045898595540525
5013 0.27652347926503984 -4.216406878881851 -4.847465421097417
5083 -13.885672053528967 16.250645483441883 -6.525748200373211
3412 26.24745903691483 14.472758194673933 19.64124382305902
3417 24.824604226537204 4.789325337971933 28.98876035559785
3416 -6.3814535690142415 -5.062690609113034 -3.8814677213094897
3418 -19.671979034245414 -26.020746342989902 -4.359527563868133
3419 -1.8166533926866366 9.05644791746601 -0.4500275163561432
1901 -4.533483766233173 -0.13167944893743352 3.3537760986931997
1903 -8.841950566021447 -8.791302485212485 -9.758471725159312
1902 3.11907014119174 28.093463534353553 10.694788105493597
1900 -1.1439855013334397 -14.875963260462285 22.04702604097887
1904 6.998680262527642 2.9243810963887746 5.23670927143744
3420 7.117324753817789 -3.8671546146458953 4.518318310481831
1908 -5.519551737966638 4.086830201874004 -8.337087278191401
2115 2.1748171480274308 -23.894244264654983 5.401191493731347
4556 -1.3839531270426562 7.223692154860993 -6.070420483998523
1905 -1.3079420115861258 3.3997763827429446 -24.095377156657285
1907 -2.479663086919802 -0.5443911425349683 -4.647752507624606
4555 22.623381184957744 -3.198107727342297 7.293106990774545
1906 25.337256502332107 -7.1693747377535875 4.93964850182641
4557 -6.312036262705496 -7.700255459756303 -13.61060605586498
2095 -5.25813284639931 1.7355916445595492 -18.752067515422393
2094 18.3682257424577 -25.207136885982486 8.727174729976895
5640 -0.5588751131039237 5.773407789806582 15.928748565136196
3064 17.075062404841486 -0.7796476865923949 17.082311115117754
2089 1.6650140767184718 -5.3939089446760775 6.2014479290002065
2090 3.8388687638289754 8.925645779788749 -5.870159025553095
2093 0.7720531188928942 -2.0947066656031916 2.9781243711265613
2359 -32.6104428583111 5.28903740591342 4.530127416746095
5077 18.22265486522891 -11.327895102436678 -2.647338194981487
5080 19.76033644493268 -19.67911567316483 -8.427106406019336
2091 8.861547301016268 -1.9002991417259891 -24.95554418672266
5079 9.123574208282426 -17.496435044589646 0.9093834235204455
5078 -0.23970570690210596 -1.1318647061979434 -4.346213456060395
2092 -22.327166032611068 -16.53563973694437 0.7616647156782526
60 -0.2145270844975835 30.420035729255257 16.988714394584303
2096 -2.2497629060239346 -2.1112557835561727 2.0353007137603316
2097 20.483304075678593 5.894670426049056 32.19789271972989
4476 -8.873358333619736 12.625032043308323 24.083354517543743
723 3.007876045124914 14.767043441436826 -5.863571932832911
721 16.604725850611565 6.4085128085558765 -2.6852963224391617
4561 0.7514067484025037 -27.99964092637143 20.65997362043231
1252 -12.554433554746916 15.220285133279743 7.430852972231905
1254 -8.991162637752195 -6.07491368450898 -18.716937319933763
3052 30.068384982161593 -11.233209796373886 18.17018279586359
4105 -10.918451587059462 12.399999923711066 17.10001985961065
4106 3.9219301708313825 -4.313178027091548 1.678887367291653
4108 1.6571809692034087 6.606652625548208 8.594426775276135
1074 -1.6740302595515018 -9.571850437460343 -3.034495584696102
1079 -2.9343706037923374 -7.12271354357789 -5.0837599304857735
1251 -8.132765009751735 -28.68798184145858 1.4936073603110356
1075 6.442779894216309 -18.288537366514106 -16.00714041933369
1073 4.980442456557234 12.191105025691334 -0.0905567970671609
1246 3.261341486666428 -2.5432783630845788 6.635212044311722
1718 5.741325283853381 -1.278437577896932 -3.295516299739161
3054 4.956220084289994 -11.520155588740321 3.297855947352793
1250 5.242956691903495 -6.780376452282545 1.0465436303744744
4107 8.233424834741403 12.147859732055597 13.007697949137688
2230 13.936200433856392 -3.212881227014412 10.411649260177073
3053 1.4288130262382648 -7.192424222303878 -4.957040032496555
5638 -3.928533195994269 -6.264377359939394 -2.368144859028725
5635 -14.340950374822961 -4.940841910599562 8.812392779662323
5636 -0.05933105067644757 -2.823047695496399 1.1744596200918729
5637 -6.816936660206281 -2.9648136957486106 5.224805110772591
5642 0.9100588786849335 6.861447958730711 -3.735202715391557
3055 -25.405408275123484 -6.11426636623456 21.774730858527498
2228 -3.62606931760442 2.242497960610503 3.4015144584028865
1076 7.501286439105871 -2.7268555062106032 -2.4199367912104432
5643 -11.368316773240835 11.349403341505106 3.3292635033302584
1249 1.5604151604256826 -9.678163093519734 10.142587851945182
5639 -4.971130013762944 -1.5676753636492753 -5.903079835969491
4626 -32.09152959030571 5.423629331005828 20.695646310616333
2229 7.8274595238006075 -16.826541952287926 26.88798033709936
2227 23.398584088840973 -18.814668351143318 12.930274130940044
1247 0.10218372919827291 -6.157114613767352 -1.783054530354789
1248 -9.517709656013437 -25.46034162948149 7.66101825466402
1077 -5.515210948133907 12.744897669227012 -4.228902867297457
4625 -6.585470956137663 -1.6795582738687294 4.145278812868888
4622 -10.34009164437869 -4.160218504104489 -0.31742244044672807
2224 29.716007548176115 -2.159655440157816 -9.568204426105046
2225 0.4552443968108826 -0.6763624507206984 2.8900609270217554
782 -6.742660031941165 1.028195903575183 0.9680050922914117
783 37.511041102675186 -1.8366966859225131 -6.9136393643470715
3825 13.013154874412786 10.909927371359801 14.676701761900329
2226 -14.377269727863528 -5.578725015251035 5.992259988832138
6247 -12.826788171832332 -1.4903554657442177 -4.521795618125781
3824 -5.718951327058473 -4.285069778923435 -2.636362990238568
3822 0.17363781379927032 -0.9834524839451807 -7.305258593569076
3820 -19.108242094026178 9.99517010658851 -5.0812366740306105
3823 15.130707434884819 8.534898394210186 32.030712372382226
3819 5.589752504402601 12.956284789939783 -11.776361363045103
3821 -0.5500430814261211 5.561002278185449 1.1880216805003998
6249 10.767321755926837 25.74860277510044 -26.24733806593899
5641 23.862424583295258 0.12494144662542754 -5.000291057111357
6253 9.68430969703798 -20.414992521353177 11.628064342768829
6248 4.17643919612346 -5.634744090706922 -5.132793580905459
6251 -3.1113795438629603 -1.2210993966290993 -6.074843975901519
6254 0.910419556244155 -5.026663336598678 -8.63413498858053
6252 3.9030202993665077 -5.647358494848478 -6.943287088773513
6250 1.9512340215039103 -7.258925022390302 -5.668154354300692
1245 3.1726921262495007 41.34091422382227 -23.104287046527524
1244 6.406261560974454 -4.989536066350571 2.772551567582287
1243 -17.515848309260672 -0.9177940588308516 20.71832149263074
1021 4.131361864147161 -12.935755255971793 -6.809079422109467
1020 2.2793518471561565 -3.3456492760555485 -11.01360310984238
1019 0.5417645063116443 -3.6743341204842612 0.07138678892971101
1018 12.036955296401578 1.474592093056267 37.56160274524518
1022 -6.890009717091574 -0.8046764681228269 -4.568781952013882
1023 -7.194457437730245 6.763484616350351 -14.109650432598512
1024 -15.163796285130957 -2.198291330657116 10.786309430685808
3818 -3.535570410457629 -4.013439204698031 -3.347435683488349
3817 10.056970759635986 -5.418409837100634 15.962736554316177
3983 -0.17887920518934525 4.22191955912862 -10.348004480230365
6105 -19.19182470736616 -16.23047644977331 -16.709553239611356
6107 -2.949566423188981 -0.04060237409750787 -2.8566214176649645
6108 31.60798920004724 17.001943551765372 -3.8123273312786137
3985 1.988335496889218 4.8232251832446975 31.859413425853113
6104 1.2243557388489554 3.327669360251504 -5.03488191887088
6109 11.434561174931545 6.174532849666053 -5.331722558848338
6003 7.9536815413805275 -0.5954653963859683 18.936622467203453
6255 21.678960163534768 -6.843621615688529 1.3579282625278721
6002 0.0008408423284875093 3.3092108328797414 -2.6613387658284697
6110 3.223548545839143 -3.704837181206107 3.484384160171658
6106 -25.649143413430114 22.613783560305855 25.05715292360367
6111 4.108011226817718 11.667308005446257 2.6311112110499253
5997 12.18167348772884 -25.516679381732214 30.73897311148096
6103 -9.542720876357832 -12.256827937391483 -2.3056058968262456
5999 2.271553128675098 0.027624805523079974 -5.332524874533515
5812 -9.190637158622604 -12.36767882385802 7.217660551777648
5813 -3.3624964908812998 -2.667260480283355 0.4054685904221279
5814 12.198060618554772 6.1861983284173405 16.18517394475077
5811 32.47448307350405 5.66372309063694 5.750010936761602
5810 -4.410333275510789 1.1596128655641522 -1.9116876389138797
2234 -6.561220241605849 8.031097857191572 0.06316844567653244
1078 -11.610733267827657 -34.543418764091236 -18.27449209177742
2236 -7.441757686745556 9.039408069367 -37.643521013471634
1025 -1.9337237770552937 2.028825685326046 5.0106001098625415
4623 21.19841522807044 16.215274988080743 -10.740782028819511
3987 -25.916452690483357 -4.256434814645834 20.77822579415065
4618 3.7688335448885324 29.016889448195617 18.08175540567715
6001 0.7123231571317105 -1.1277275965185263 -1.5787296696651052
2238 -10.826901528217697 -2.2185346539857167 11.111437737907778
6000 -11.067156799438537 -0.19420965956946265 2.915211692386636
2239 -38.277354361540176 1.375237021942988 -16.39148788116528
2237 -8.347929841097091 -2.1758812854453735 -3.8117856436785247
2235 16.568381114147012 -5.09732373442992 4.963015116548211
2121 -10.93661128961512 -1.809504650037989 14.235775959485647
2377 -0.9161608149885054 9.89276086414772 1.8466206137705743
247 30.566008985142403 -9.618978442225155 0.875753761255686
2233 7.640521906199092 -5.938534681081638 -2.209543776759619
5827 -18.040416804800063 -11.511452474480526 8.61442697722044
3982 10.89712610362576 27.9199560603404 -2.4399375569158868
5826 -5.201059697048192 3.6433270826919 15.431768756181178
5431 14.797647926875152 15.43261145596181 1.2519682895143154
5430 -5.286417385527436 32.5832444231252 -0.39754599886580133
5824 18.520160842446 25.935834607151026 13.630487783567682
1498 -4.072397759088526 -18.87857731351293 -4.3038353785274595
1496 -6.462832609283201 -2.4710145780566206 1.0928945080946761
1495 26.566788626575242 12.204493521917497 -17.806487406017315
4421 -5.044294701196411 0.3097633064013394 -5.380626220929167
4424 -3.106889248701596 4.90250646002631 -3.9274712477390747
4425 -9.139751070462408 -2.459257761065372 -5.848993747903096
4426 7.877857396902624 0.7066094991219266 -15.536235294566735
3298 -4.87115247320731 -7.505714951809848 -23.11381810844896
4624 -4.8885480506306696 14.561116875339518 0.8891619350083891
3984 -32.54177954375626 -4.971773836005288 9.43030683283456
5995 -39.992235850705974 16.95818262520238 -21.337449907405677
5996 -4.110321419042285 4.522769453900423 0.7973528409338524
5998 7.467000920804392 -6.252071275450259 14.2806513147223
1501 -6.8486592725423785 -13.58330206824031 -10.990896357336792
3980 1.214984912117602 -2.9345085953603993 7.310325732556424
3981 -0.2004114400569488 4.478477034029604 2.322914596753236
3986 -4.814650464918087 -3.5104683145489353 3.128754848525528
1026 13.1206798977172 -10.723820190545196 -14.734354672361265
4621 -21.417283232484106 -4.153070740486567 -23.139665458776072
4194 -4.084899381089603 -29.493247881856632 -2.549719230204351
4192 10.96587496533864 7.8988803993736125 7.89594766135931
4619 2.0629548435493623 -6.13185800556398 -8.617650104239639
4191 23.634086167522803 -24.486778765700656 -11.932613019765657
4190 -1.3268157495905855 4.845811223983563 -6.860026954968032
3301 2.13571294258565 0.129342195956879 -3.3234705303726897
1485 10.293704854465403 10.23434101813017 -11.41408592861972
1484 0.8250617318388491 1.885551094535898 2.686882129042779
4193 4.406175109481627 3.035248182073503 -0.8970594933588224
1483 6.758176720073676 -32.50419049205343 17.450452134329733
1481 -1.3253484977298462 0.014562998619627837 -7.003128447517701
4188 0.0543314159996418 -42.52515591138195 11.80843806364352
4186 9.22496472089223 -7.977640445527763 -7.205108783636393
4189 8.025441670948378 -15.86073019801214 19.45660430661488
4187 1.7690225234959975 7.968544067710055 3.504631449597139
4620 -31.791979922306886 13.56788242655336 0.6265380615614412
3302 -1.8277025885989917 4.14118704101349 -0.9284552471287534
1482 -0.32123049224077566 -24.80278643239024 19.80358593550939
3300 -14.845856612162788 -5.924637594141756 18.061959396886706
3299 5.654350245920804 2.492516919768715 -0.5457486266471941
3303 17.090486464657612 -29.758051576161325 -5.413134306577957
5793 -8.892034283104437 17.118475250773482 0.07049378487932342
5788 4.76924870051597 -5.769371643691309 -5.540141116163492
5790 -14.655236895424155 -32.542222534789616 9.827726006427314
5794 -7.491980075546793 11.721036588284528 6.05044915918438
4420 -26.187959837190768 19.780471241403703 20.122199090682827
4422 7.3697070817828925 12.216014199641778 -7.282320700903112
1480 -6.362608662401641 16.222963405549468 -4.749619229531282
5792 2.4877780727090357 3.9123981187512813 1.7928284839137405
5789 2.9935606483551527 -1.7384461037985879 1.382661263995063
4428 2.89090291389458 5.313289629771708 -24.122114631227248
4427 -1.1215417572363675 -8.386085983906645 -0.8343051702149743
5795 -2.728195844691219 -5.999521050023346 6.979636177983279
5796 3.257421574540489 -9.334888366890892 -0.75769620115955
4022 5.69921258635865 -3.6743296648176296 -0.9776961962441607
1478 -4.761741581965833 4.287583042591741 6.1178343966712205
1477 6.3897725263137035 1.741500007613897 8.561480963001802
5310 16.716358045103284 -5.737286161838978 -0.20135066443526856
4023 -34.08273281672892 9.960096572247418 13.247279938925335
1479 -3.0367639949772194 -8.7910211830815 8.6409055685338
5309 -0.9461974468445219 -0.04413344888695511 -1.6822622964354346
5597 2.482523928563379 1.3912007174779732 -4.124948705643904
5598 13.14462262266938 -15.803853830567151 -24.018999636511857
5590 -12.14947068878122 13.345079025134666 7.934867708502394
1294 28.242417247418665 -4.548338841134977 8.927761124753392
1296 -5.429135561843607 17.109554025577754 7.46506814138647
1295 -7.264076149406533 -0.887971122706749 -4.082277314850378
1293 0.6370336296877209 7.207275546814935 4.3453153212414914
1292 1.4827427675940703 -1.409707311477921 2.1081382688750847
4015 6.890782276667137 23.632151903227104 17.245311568328994
1290 11.262045965794712 -23.92673985680932 43.537307043705944
1291 14.858960518813292 0.41629218106665805 13.289605120967103
1289 -1.2112673899479924 -1.804974812979028 3.6848852168624515
5591 9.138612588528712 6.966100782687712 5.110537250772442
5592 35.18818353416022 19.80982697643803 17.46892062440538
5593 12.522126199628199 -2.5363348281005784 -8.852522116086563
3869 3.198685919134772 -0.9075466074074132 -3.6306305697129515
3870 19.347066050019748 9.12055766856278 17.424646876510877
1288 20.222710102388632 4.481474334125241 14.344485514123543
4567 2.449712916620276 -8.99350801669233 28.079711880113344
4018 3.69656219725145 -10.332642953944369 7.141697653611229
4016 -5.4891124816702135 4.359255963878115 1.1778737050207821
5594 -0.2712838260115652 -3.414593983284768 -7.1419475970171495
5595 -11.99085278170944 7.64524679999791 -22.020201019308733
3868 -32.5917120375515 26.759562402151115 -7.969983855309757
5302 -35.86255207305185 -7.099948381294512 -11.411478341512494
4566 -7.045595831784356 0.366404280358328 8.402272987517843
4565 -0.7208170727908106 -2.9346068679487036 9.881833509962771
4020 -23.17273258317677 10.002408806829271 -10.036979885890373
4019 -0.5143780411467482 0.2987220343601824 1.4791216138975698
4021 3.2036421368361725 8.868320035397936 5.194535032965966
5596 -3.851711131484229 -9.408166872233547 6.436312575318392
4564 4.387035709126356 8.18027807820236 25.482046131406882
4571 1.1909618813257243 3.8102733086009004 2.4472512503440123
6028 -7.623877042261272 22.511171579517917 24.376421509249067
2212 23.182354437329042 -2.0912731246350456 24.982515881532333
5304 1.0624419615501373 -0.5341971916463952 -6.953784465903379
4569 -35.90595783965981 -27.077900531157358 -4.655623231615074
4568 4.617821844751511 -2.0218702520150282 1.8683520561153106
2206 -43.6313383656719 7.052582194061689 -31.390029149386137
1164 12.013567657773677 -8.924327577501561 -19.770350210308674
4009 24.355486878225932 0.7195567246342821 -6.122410211236731
4006 17.900328036076672 21.97978564379774 17.46346602991314
4007 1.3785164280501454 0.20977977276938856 1.145846239437528
4008 -16.614876461601643 -19.563818040707915 15.264440699201849
2364 -4.728145464578101 14.052104768255262 6.286935354660753
4114 22.291847262828774 -8.041805949878661 0.6520724652580162
2361 7.391902023450571 -16.77959582578635 11.978753108959792
2360 5.104373108909962 -5.009787172990534 -1.4449097118917944
5353 3.4634382379133752 9.166725830364257 33.502299759056974
3867 -9.281683733808157 -21.842965043006732 -28.280669924784032
1163 6.938207986770036 1.5610032973405057 4.4278982597158
1168 18.573165493884844 -13.56484401136926 6.90549309042824
5351 8.702161640682025 -6.363386634724981 -7.635481884659318
1165 6.5396334533646145 0.9638783280623958 18.887098639229166
1162 -10.176580794940284 6.085371407560295 -19.229870450498098
1166 0.5922922448183676 1.4467357102047527 -8.226619453004323
5350 5.2206158179349 -6.765170503687634 24.55579146962084
62 -3.5379481612817227 -6.77774195927646 -1.5042796747689804
63 -1.7725169400797314 5.861086914765159 18.155811736406708
1169 5.727355448516649 -0.42468512576485073 -2.2201356534159946
3865 -4.30825052015463 1.210379076293012 16.13101134725154
3866 -0.14425748129094065 -9.726605785855934 3.4791227307240247
4011 -12.86688057032846 7.5287938095463485 -30.308431218377823
2363 2.9415497132569133 -6.388180526871178 -2.7117128616405313
4017 13.517511838396718 5.075043791286463 -4.035733959208809
2762 1.5876452600844968 -0.9748184795327356 -4.432648756872643
2757 13.043737100771551 -6.865399586051608 -14.775529878148367
2755 3.8741975127079087 23.027567445166987 -1.6541975856174242
2759 2.007626111588774 -0.376463061193308 4.407679495728243
2760 -11.806176545186952 0.8976841609102277 3.5668004899450705
2756 -2.253215696351529 -1.3187358787362968 2.2547042328683027
2758 7.037418135716797 -4.629740781312326 27.84813643334592
2761 3.122719398823716 -10.081309539574642 2.3929800508116355
1167 -21.087722212475093 -37.831675518964325 5.921932128309656
2211 -4.259721710877544 -8.739016144357032 0.09006366113981727
2210 1.3467705533126315 -4.57861635006383 -1.6766430402592392
2208 9.711263190889724 -22.512459455116087 -2.2714555524894373
1170 14.014562562011834 0.12503294223021474 1.286061991045493
2207 -12.457867135461198 -4.154989325942285 3.302170175105394
2209 -3.015805338143346 17.155110427499128 9.569761187945653
4014 8.383920367566677 3.892301661167602 -18.182102912978298
4013 1.0282402342236399 -4.650685350675444 -3.175725058998371
5439 -22.13227477584555 8.264236901948637 17.530531828534855
5437 14.593930992721205 -19.24208115843802 17.851057663091566
5440 -12.001655249655782 2.5626031058002248 -6.456651331345248
5442 21.086146632233145 -39.49979254600274 1.7998514590600776
5443 -15.004862802436348 -24.040261002780632 13.854413927318092
5441 2.229715403084129 9.468959782919631 8.622205281251025
5438 -3.621957493594528 -0.6196782253071982 2.9418673442431276
5444 -3.365316511587496 2.3654007855473296 -2.170881243076543
5445 -12.30055082499739 24.87592651384364 0.10704157725030239
1382 -0.05724657894809088 -4.172171966951461 -1.9436006213074963
1385 -2.6763917657366063 -1.9381949982735407 -0.2272396502676283
1381 7.118780381934137 11.646954484595373 -6.350287037832407
5653 -29.861599394390378 -12.556472173875996 8.886226858917512
5655 27.837029405014597 11.216703042553453 24.568481735642866
5656 3.1578568897628077 -11.209481825015306 4.188722491255421
5654 8.74096729737459 -1.591832713980371 0.7326932764385529
1379 -1.6944664700006322 2.0026553769121813 -12.048551359423808
1378 6.616465453578544 -10.475748207485672 -3.572102599375466
1380 9.987155221679776 14.819278135722572 -7.611486186867526
1383 18.070492018315335 -15.090513157013122 14.235146793298123
1386 27.34168831259245 -15.742987198278676 -4.047112890487458
4010 5.221788916728222 -2.097174859772402 2.7203436761501423
3863 3.0151232951577076 -2.579762463218418 6.871573502057832
5659 -2.527462064121411 7.870074195752181 26.90659056007534
5657 3.7282426577240906 5.733294960427953 4.033047796658065
5658 20.43140982549069 7.893890858219164 -5.1055886027680755
5660 1.1859147904321738 6.7682978941745935 3.1484435010479337
5661 48.822540824612524 43.26509715469197 8.182722378709096
4012 10.89076298615234 -1.037931431094099 -18.268646784191173
3862 16.769387451722483 19.504596628334372 -0.9599724230749115
4250 3.392523410719187 -8.211550659045791 3.316529408062182
4252 3.338563746262596 -0.03446554820842134 -20.646139303914186
6237 -14.673442076961829 -0.16084232997035422 -1.8465424057161481
4249 -5.353648061603135 -0.3919716449093182 14.444746367841399
1384 -1.2495250825484225 -11.88265642473883 -19.282104001497373
3864 -9.588439938146129 -5.073070239301708 -7.331135865260368
6236 4.6927008671164 -1.9198029732963073 0.14258438849269484
2679 -17.40330293121926 15.976787648202064 -28.315162512076025
5467 2.8866675525892664 15.11958763957816 2.9619322229892853
4572 -11.107672554155751 5.250587844930192 3.865339389020733
6234 5.991114236082196 1.467432089880482 7.736837667318941
6229 7.272483111307308 -29.361115983770567 4.218464033265508
6233 2.7312400897728857 2.8574087744825514 5.403898407622911
2681 -5.301995540635151 5.087518614847423 -2.1643677426946337
5472 7.723901091124622 12.689969937613897 13.609616679152815
5471 4.4415244203590625 2.638886398454556 -0.05783173881213749
287 -4.898192419984259 3.723214619271307 3.04753329936779
4407 -20.257732402559203 -13.232226830104686 -6.149601809962878
1648 -0.5134241466889745 20.18347219399352 3.7903222830569647
1653 16.82408206055186 4.391012485419014 17.287397129429618
1652 -1.0621366747328165 4.450912557826428 -0.16118348347179243
1654 18.197549965596515 -17.385259166394118 -26.676056060276917
3804 22.912828142076254 -1.212155907523351 -6.73768547068447
3068 1.2802828070780619 4.946010746560222 -4.934148255765813
3061 -11.58998632416985 -11.159902924036144 -13.910989444489186
3062 -0.9085193323240076 -5.636411131783538 3.0489954843588207
3063 -25.11625457967923 3.738148980722051 -31.969683044684885
3065 3.2556292631267514 5.898561017654332 -2.6934345136918023
3067 -5.735930241621546 -15.36634083421643 -37.70099242952419
3069 -34.58834701393538 0.32195173245035213 -6.069065467114095
1656 13.917442437641402 -1.5443767229197347 -40.84422382678901
4477 -9.255431038304515 -28.24079512527942 -2.333740333282179
1651 -10.145748135281485 -2.0314218600416662 9.167427513191805
1650 29.960390369541393 10.80904763426969 9.79275196327237
1649 -2.7698429992577753 -1.0688766119187838 -6.987377515292374
2112 3.587724672947057 -16.951877396498094 -12.505371178950641
4559 -0.9062333397125543 -3.7797406564355693 9.06755084068501
4481 -7.556926675727212 2.5043433955198946 1.7789827719427007
1655 1.3260093203010284 0.8152884096593644 -4.113632138501309
3616 -2.607753206572372 3.0596125374981056 -1.244284035501138
2113 -0.37476623239560675 -10.848212112668653 14.302270201927522
722 -0.7498665821482979 -3.5350603391405695 2.534081360344031
2111 -8.948755812725064 -2.4410268301195153 0.6808084452553599
727 -1.239637828850406 -18.388330828517088 8.65498533056513
725 -3.834417872446367 4.27973190954985 1.0624523241470736
726 37.40903421014519 -17.188253925657058 10.214450121864083
724 4.183838565973911 10.724572324181976 -2.8212601417003587
3066 -37.243255138231284 7.2237993713899655 -10.72692189789132
4474 25.78581285420492 -0.8882471609168673 27.73566363741917
4478 -6.085643291923624 -3.406005697464557 8.817518218534726
4480 -5.2136140510587685 -7.322037914377352 8.687958734183153
4475 -9.452837383775659 -3.9625691761478934 -1.8192541624154304
4479 -0.005013628941789322 -27.186210966494304 26.684400319313955
1611 -6.983996780575791 -17.120973622455036 1.3399632262194814
1610 -5.520034973470844 1.9624672971436081 -4.652505979385689
1609 2.6937388350055027 20.373125658451936 6.197741129531528
1608 -12.623999553887591 2.2292393918151086 10.564703651333021
1607 -2.4207007282575184 3.08472286284996 -6.666573309414447
4890 15.640325957743064 5.497139360860267 4.139531574753544
4889 -4.707072000585822 -3.7444694783436456 -1.473794282979782
2114 -3.0285900830179053 -7.586429639332905 3.0429671341711386
895 -3.860117773720834 -2.2151502587914917 3.691507993911351
894 1.6864161480974502 28.31408668890982 -17.248915965954318
2110 13.330399490496173 6.443713871634628 0.930143177291933
2108 0.6676734182433209 -9.544146644103442 2.906663791133816
2109 27.52195215394735 31.224157642442627 0.6816952314255762
2107 -13.76394593143346 -7.316191852554439 -24.59264136832686
896 4.027013063719964 -0.25148298040361067 3.5046631447633145
892 7.540891614170208 30.300450759215774 -11.561264032673837
893 -0.8444038432009178 0.47986282299640487 4.368573241169638
288 -3.738104226216822 5.112540577734565 10.434330924299953
897 2.3991809577017627 44.14504320964293 -6.623112211774873
900 -23.812702032345342 7.233859255605641 2.7089031222612947
899 -8.646087736963771 7.721525671744913 1.1222864780747877
4896 3.169520822667408 6.988381417532823 -31.465939655509185
3615 -41.76116169054403 6.8596398118892 -13.443207056754401
1603 -18.023661712353093 -15.149743005302728 18.532519735309585
1604 -8.418087776011044 1.4066835371822324 -9.371133953394617
3618 -9.067653647805404 -0.92425238662384 -11.597380028959565
3614 -5.221757978811402 -1.9248116009837108 0.18354656365977665
3617 0.35232865195935964 -11.204066447957917 0.9081055183752741
1606 8.46804416709242 21.255132479759922 -8.205677505685179
4698 -25.743283799512337 -29.483577472621892 -4.774945356462335
1152 2.5310233449748902 4.925529028955065 -23.695104756707533
4697 0.25322807079459825 6.64220090268023 3.8954224074175277
3611 -5.633355041112197 0.3307943719908988 1.1972203641705021
3610 11.25173415372315 -1.5574779719544654 2.174673885297969
3612 -10.300945470310628 2.3886901189199468 -15.46056335621374
3613 8.868988560217696 19.312129889644755 -9.900782386600065
4882 9.751885944409864 15.842079423906755 -8.05533133614765
4892 -0.44863607732152516 -10.54485190627555 2.6881054851657926
4880 3.6954438631162145 -3.5454333739259316 -5.413157946462593
4885 -0.9110346442975341 5.395763295353928 -25.113264081219196
4883 5.175168145760843 -3.7790507485954272 -0.052268014845057345
4886 0.566591326974044 -4.1677535082123045 3.54816765531671
4881 7.408431041474163 10.955210318336446 -37.824812976939434
4887 -15.717770068569356 5.6992238477983825 -22.308655301730393
4891 12.12915942677392 3.547334632735804 16.71610869616949
4888 5.16536521701097 7.671897796760221 18.639031652606576
351 -7.269249512394767 -26.84065864691231 -4.135472805292268
1150 -2.261876864277576 4.101904759107623 -1.8663930099725479
728 7.8636823280290065 -2.0161080977900667 2.3314882348044126
729 -10.840040628533787 -4.802720694716488 14.733297300449538
4893 4.242379478475196 6.848432111099393 -3.712922029192113
1148 7.797587698283759 0.549404237091022 3.352403863607242
1149 -2.3654395479223753 -22.90578703838712 -3.0516462386020535
1151 0.2515820156886437 -2.1131160910542715 5.153013414554938
1144 -17.350047787245323 -1.8920897327305601 16.87899985743166
1146 -1.9344333619033796 -16.3470349291454 -8.9066912679811
1145 -2.8491840366122787 1.4481313717269626 -2.336969769158391
1147 16.13574128297046 0.629640463584979 -13.40209376423864
350 -3.4081368983051608 -5.752980249984822 4.857105621404114
1605 -16.73542464893166 1.7003370726129963 -3.401463096409396
349 -21.13157746310699 30.00946249027677 -37.46590155409714
4560 12.716291641588269 40.40781397077659 -5.669697898814028
346 5.577031230804955 -17.32829100599588 20.552478418993218
4879 -12.440081281613475 25.556706537889113 -15.070240533351702
4894 5.906180588211391 -19.927032134088133 3.8060564190109836
4895 2.6683696553616256 -5.897214313329048 0.42604722329331995
4884 18.061224576872053 -4.648533258981096 -10.377456650723392
348 -8.170935184974914 6.068358262846078 -3.263117056173506
347 1.4703981439330702 2.344074392854114 -0.2403343626431924
5461 17.043334179079416 47.61824394559309 -25.68522832519846
343 -9.63908104564829 13.506499240176398 11.590017988053797
345 17.027834184155157 -11.110890498705494 -0.883575465012354
344 -4.645377139719691 -4.306653249762265 -0.47539777843520215
2385 -30.444628048100597 -7.1845213850846035 0.9667295524288427
607 10.464188907178682 7.860843996285892 9.280334861142268
2147 -5.0385257656703875 -1.5196834016861294 -2.7685394502175873
2149 8.195566089958078 18.504620673923327 -29.980617148304326
2145 0.2866012352212812 -2.817868895320773 -9.808461478587278
3171 -1.7786641651962134 -10.720113064956163 13.934643162459947
3207 -8.584888848944052 30.113279826272837 5.992461075234753
5809 -0.24965227861649633 -7.143086895575755 5.246452727508386
5807 -2.132659378856205 -2.865756698137156 -3.5810916456230983
2382 -11.508206548604573 -6.212931203725034 19.08738257071672
4690 14.704960528141878 -18.194229286791867 30.02966344170976
4691 -5.706441468484887 6.476518297833082 1.5801353772743165
4692 -9.768924868670942 20.18163356979875 35.767333046427986
4757 4.986447878472132 0.5156494269710654 5.176741104958039
4758 -15.522524339750666 -1.7521867814459238 -10.44680945738391
2144 3.8969137444891375 4.796020405377325 -5.284386356809373
4693 14.92942088965497 15.584533745558293 8.095640967831454
4694 1.1982571956610713 10.979695486864491 5.78032424091262
4759 -5.015166783367212 -27.68486273269963 -0.03409944629951541
4755 18.703003835871993 4.021335728951099 -24.32164103707584
4695 -25.550267837536964 1.0479310178541315 -1.6700764435930042
4696 -8.707275287998442 -6.992409742968012 2.3738324638674486
2146 27.348327420671804 3.898036151491041 28.753756952572576
605 3.005489430894561 1.6964028665673578 3.1296339908612696
606 0.41210018070382276 -22.88340037523069 -31.25705961914384
2512 2.919277498031714 14.11398456799099 -8.431939812484845
5806 16.99150550994386 -4.513894992647804 18.217229435054843
5808 13.939321637034606 0.3452297175337734 -12.671206003574062
2143 11.316704821149628 12.038481206761874 -2.2830451111217434
1356 0.3468647680341093 38.44910209023021 -17.105065951538453
1357 -9.937564894164414 8.231130544980086 -10.26199790119687
1354 -15.789112254949183 -9.28367943520962 -3.0921375530987447
1351 7.657672149464393 -3.203482900665428 5.593752533279328
1352 2.2319089417092335 2.8745528818123955 -2.478373468016152
3169 22.085784045202917 8.374712095172711 13.9045828765811
1355 6.099051821953014 5.571640774750643 2.5621002639979835
3170 -0.2960067825830803 -6.95149413524178 2.9725752650310464
1353 -0.812151169633872 23.904052655756704 -33.015130304590166
3174 6.833530486215579 10.055048104315457 2.2240400768016553
3175 -18.33858874411236 -20.35849933709926 13.663829857494258
3173 0.04200256865239594 4.356936685179146 -5.758224098565139
3176 -5.915995122111661 4.445631360704058 -3.1848428321562916
3177 -15.549481488769265 -16.65965286869893 -25.09221167465919
4756 20.657950902212367 29.726532200124545 -0.5968672209723895
4753 -16.077896359030323 -24.091307323327044 1.9492742777683858
4754 5.45377847104508 5.614543047363063 3.935004571109259
1359 3.9230946834177964 20.16407650733467 -19.856848383802024
1358 -4.8790905422582584 0.8617514402745933 1.2796353860689875
4590 -14.655277611923776 -9.711544442033464 12.809840100373082
4589 -2.773261692282896 -1.6295170977392357 5.113542294758488
4588 -10.915652829082392 20.385318462907364 -28.739575542106998
4586 -1.5195621713373204 2.944262277811217 -6.23971505399829
4587 4.720957145414068 22.459187787468906 -8.238868814406318
4583 -4.0226485172379185 0.5218923297594034 4.466985052019289
4584 -2.0181781405953134 8.940383985822987 15.952965486664182
4582 13.99345463161651 0.9130010320273543 -8.431888443229395
4585 -3.635691296274635 10.403955027229753 -3.192313354252189
5541 -13.657368129156877 -1.669488713536023 -11.576301563036013
2241 -3.198015426012195 -25.079330215585227 -36.265046569033274
2240 1.922959806393371 3.553195147835109 2.85624055934533
5536 20.517659407718227 21.877945186167036 -5.294645222610988
5537 -0.5993712015584259 0.6452337638778052 7.330254902184317
5540 0.6619659192732789 3.659386668909783 1.7474874653339831
5538 -8.769814277410404 -11.897404466029348 -6.473482326733243
5542 -18.36043664008937 -21.890987490779143 27.29718404338381
5539 1.5048886378189519 -2.7520709503234952 -27.362059257964724
541 5.177320583331135 12.110161990438863 4.71928799268254
856 16.86270965297606 14.406174572980238 -23.60906069887439
388 20.41516778059795 -4.040352372187289 -6.332852325469868
857 -0.3237813847240428 -10.63872592848278 -4.1011959039712975
5543 0.3516804119983839 -0.05282651051335197 -2.5530320877035786
5544 5.896250432415381 -16.761909667287505 -26.977295635514423
858 6.045752419138048 -13.78585810028824 -1.2657727329861417
389 -0.44435124831229644 1.2068131159346045 1.668061689254446
391 12.21045775694306 14.51038496802513 -4.021256350764037
1551 -2.517622527640861 8.45268856181343 -0.3774342405154653
1550 -0.7112276780952944 1.6588358459966557 7.254978830781236
1552 35.34963843043184 19.470033178733676 10.97425838396497
1549 -21.430770798550924 9.041625460446754 -11.79782533468106
862 7.629668629403601 1.379213234081493 10.373099185369897
859 3.995069021926077 -6.4162571950082885 8.239547348044507
860 8.841570347337159 -2.757662173446738 2.6913475308660373
2772 11.894919675288477 -21.540015458034038 -9.946993429044278
5854 -6.6752967219697865 5.878198555507311 -17.013836869774888
394 24.332799952862572 -1.8172968709454307 -20.188720814221192
393 0.44270826139632125 11.284443856356493 -6.477887104098512
392 5.750800571730076 -1.0061438375339427 -0.7292757330245565
861 3.6551607564666377 6.03345514996851 -36.34327511632189
5851 39.89398951474003 -0.6856907026515225 18.632495234279048
1405 -11.413755787392697 1.6420558587911387 -4.4118362097493335
2383 4.740609827140021 -44.3542633229936 -11.650009602723262
2381 -5.4664145478551776 5.239725674617685 5.312340178049653
1553 -6.419756882426446 -3.9285142570795006 -4.1143977701716175
1412 -4.25579158438088 -3.592155905626787 3.8950309066896613
1413 -18.732518629713393 5.233062178048081 18.240610003307797
2764 -13.405368993408663 14.913931563557735 -20.44246522801268
2767 20.936985806565477 -6.633605730378185 -23.45068965211882
2765 -4.660693111335415 3.7787580997216983 -4.3031624613670525
3258 -20.134239765471207 26.41814155586419 3.5891181065653703
434 -1.3254097866997125 -3.719021923288276 9.314734640007526
433 24.254140751231454 -5.344710039385083 -1.6438239905381447
1622 -0.7772510690042846 -1.8017872682422256 -1.3448289133217475
1624 -37.75481015582768 -3.313019951440291 15.488808887051297
5306 1.0539379223899987 -5.170903842891647 -0.44071034501162265
5308 -3.0321451105085964 -22.22893661043764 44.76440012539815
6027 19.152145065768604 6.74898494997014 11.275446204148253
5856 7.44947449471731 0.28902377944190016 -10.374955617219314
437 -0.9657074400532505 2.5090760942140418 -2.93986771272808
438 -26.86412974801842 -20.368234646694454 4.3081782242808035
816 18.006950407818103 -23.08931920677473 26.62331580318374
4570 -7.849313034204146 5.068780126304461 -15.564797302240521
5610 14.391781014502001 8.379236929785655 10.223112626446877
5614 -3.1100397573293987 4.169630088018599 -13.351912536521446
5608 9.07465617956703 -9.414505457773254 20.761153377344495
5611 -0.2414100406755008 16.447495499903567 7.940397225504718
5609 -1.2323855174128389 0.7818946471083803 -6.55664563085131
5307 15.32592870219901 17.516820658460155 25.73715616661672
6030 -17.154522285702242 21.22811858413768 47.16317938898729
2376 34.36594482145706 13.211674811101785 -14.501524262815822
2375 0.9211121911221735 -3.340786503117596 1.8391864679466428
2373 -28.211806209682646 13.696859221222565 -8.48713571020469
2857 5.726899255520465 -3.1076351116057337 -24.30902665359732
5857 4.547426373639385 4.107765678092316 10.374566405890837
5853 19.304339562809417 -7.4579432815796585 6.556939473443036
5855 -4.8516644594566625 -5.151793633839733 -6.066135761216883
5858 1.6562821306108657 1.2755437628253823 4.518175683284481
5859 17.166295424237216 -9.593829504473861 11.562592668889177
436 -4.952511965040748 -7.314796198955016 -0.8205890916559013
5852 0.17560903677863152 0.7234378425541339 5.854901437812129
2859 -13.496401587407567 1.4665464387185199 15.23497289172857
5303 1.6946146824180752 -2.383391596165858 -1.3587971463608786
2665 3.3569304634979558 -10.966487736945904 -16.62856099753397
2667 0.197926153614568 21.833230172179768 -22.115954426133232
2666 -0.8366286386803319 -2.878025900388084 -5.873594071034924
1626 10.562439358898937 -12.134257801341636 7.18212737012694
1629 4.1704284811574235 -9.44541984310628 12.221999870224584
2862 23.178905015242506 11.362789977521212 -20.64253175677424
5305 -7.011630736459533 27.317137882607323 38.38732291630469
863 4.925368394733852 1.1782662222499087 -2.679508029582353
864 -5.769347041912439 13.51236697350796 -7.202120208194026
2856 10.91885793597145 -9.54977056797444 -5.925911016540962
2854 -9.023305844603016 -5.253506296495474 3.992924012648753
2371 -0.7031301551690369 24.216307349486947 3.6822179397250876
5612 2.61644265026516 -2.428623909110165 1.6026606098173246
5616 -26.15071096949476 10.0109873183092 14.32353642534521
5615 -0.5416528255421027 -0.7348504175573416 1.9766252691477628
2370 -5.752572953750834 9.320347056099974 32.296079141240995
6120 6.2775614668056505 14.969488684993753 -1.6170311188396111
6265 -27.575582134622184 31.5462967784961 7.823997923772729
395 6.4664281707976805 5.9848675159074265 2.9556913358542207
6273 -11.764580141234863 -4.423435945549037 -22.27613352012679
6272 -4.4661614005802965 -3.0899662096783485 -4.397883338428992
396 -9.11260517641026 -0.9125093879313219 -23.663366356935118
2861 0.38941238834434305 3.821591692675484 4.522678216944846
2368 6.537337076938728 -44.52780735442037 -34.57522600955039
2858 7.032249668595375 -5.148732886525546 -0.38283511841422974
2374 -20.139283735627195 20.66975300635184 -5.99371671062118
2372 -0.9465384707261907 0.9805751272258255 3.2242123757395027
2369 -4.8552109300414745 -2.0217078536534334 2.0198682487568056
2855 3.853599523954769 3.0837839253953367 2.200603620102189
6270 15.176280790276435 -11.418559988816828 -3.13090950720158
6269 -2.199497285971911 -1.3049598157610252 -6.870305476161122
6271 5.685139445513224 11.291446972884192 23.745400211070457
6266 4.458372318729815 0.12969396964898564 0.6535387371730476
6268 -32.28322641150022 -4.0973430407041525 -10.713518721076305
6267 26.62662435900458 16.937522907135257 0.700514146433708
2669 0.08674087619465896 -2.1786998296733895 -0.978199451399421
2672 5.389572398849164 -7.299592557867447 7.032088505593881
5613 4.504216733165696 0.018282561553838887 -17.356314962128007
2670 -9.26860352944705 20.799887365427985 -5.352962764768028
2671 9.066654436390923 -9.198498493382283 7.391081030020599
4818 16.175014363792116 15.654450650725076 -5.441086317887102
5399 0.8434143205706669 0.8995426003797464 4.366120072249879
4817 -1.9566267346299877 1.324356560562276 0.7918545027830288
4819 -6.999482700167288 15.582680396483212 27.3350505370944
753 43.039616913716614 -8.315396494392248 -3.9143878504775382
4821 28.253576357520654 21.3168566076186 -11.19393096512424
4823 2.248707500294514 -0.8283643351479503 -0.6896663331503607
4820 -5.811364661935415 0.9538147804169675 1.156847772338277
4822 -3.581254967494636 7.051328443933243 5.512707891644619
4816 20.99937140705365 21.081934833578167 1.1068874462923821
4824 -21.20510695997976 20.326797572775394 -1.320054327180491
2730 -11.602354478741097 12.381238407874255 4.308107679696141
2728 -15.525888851635818 -3.7658297452437997 -1.6451117910484943
2729 -3.665515325574126 7.548193657296907 2.2778791858772287
5400 -20.68215826635755 -5.722846087504758 -7.401288058151494
2734 2.6344627942064704 -7.536701144831965 5.945463336598428
2732 0.3158832350750869 -1.6922843441427464 1.5562962794459256
2735 2.5589524473889993 -5.867455182774259 0.3041952130938956
2668 -0.5282889001251216 -4.229438757631434 17.372253155505426
2736 4.341962749965952 4.888527254262866 8.859927750998281
2731 0.2823491380341695 10.81444968968462 10.192545529000055
6026 7.168198417607484 0.21760866634249976 3.430234019257098
6029 -0.8174700378823923 1.441740948045953 -5.656008622022147
3810 1.2510749240697312 -23.43335034276201 14.862895397752784
4771 -15.735315685544462 -15.833895686364762 12.994866988890978
439 7.729748184362465 7.837758248189735 23.84770659966498
4774 1.7132542046650747 -16.016901063322436 -7.080869841150978
2630 -0.18696918481182012 -0.4473221532272343 -1.457639066056416
2635 2.0254546676366476 13.696019005594946 -9.583440064190112
3803 -5.019419822266839 4.253744442046327 4.3018529656168365
4251 -23.837673177998965 -10.367117484368874 -11.85721895458271
2674 0.8442437516784965 2.3550310692910097 -9.77435555353652
2675 -5.139005057276617 3.238836003474469 -0.393094352676944
2677 -9.934552194487498 0.6960996869386902 26.814487380830542
2676 -2.4446394392979363 -8.035881669698387 -2.944976249671735
2678 3.8757053821489427 9.664787154797798 0.855498502160504
754 -16.133534029235204 17.090644825658643 15.93786955084093
1990 6.661565819064203 10.769446973914038 -18.63100149943839
898 43.065797315097164 -10.973912902119508 -10.072560247864782
4537 -22.820381000307204 -5.135917649976444 -0.9955885806850847
4648 -33.532800296447114 13.561478863562085 12.419227324233697
64 -19.003796917210135 0.7157520587670655 17.94540377809708
5509 -26.82060890473315 17.821308838170413 17.62039239181072
5512 8.941117769303018 -3.4029404532581586 -4.46096942181299
752 0.9313164513344395 -2.0063082796319165 -4.5306297728463605
755 -3.361645687058688 -6.7693999291765365 8.155195817002559
748 -9.514197310784725 -6.350056888514065 12.668554442789736
749 -4.343532346494066 -5.674801485000114 -3.1815863943756852
750 8.063225214693158 22.910546949587808 22.17796244107443
751 3.493951879601314 -23.591646907725824 -11.599731737932965
756 -17.909257364341563 10.744379216659253 5.79024581682088
4540 16.01217766310302 1.1309856994509038 6.100916264812486
2634 8.844858739823554 -5.54595900971914 14.35735194836163
2341 25.296589529895073 -24.374795102509214 6.066130795546475
2343 8.338615924824015 14.837739159724595 5.422820438768344
5511 -17.79336294998039 -17.598437600481738 1.61426221350952
2344 -8.668908018811832 6.9814995558768045 -14.911802124327231
2347 13.900954439117823 7.955189302889212 24.588969124086734
2342 -1.9254200596292665 5.434784379647245 0.8366036178536064
2349 -8.498246860019137 -21.759657413036862 12.73870559399319
2293 16.492817247059705 -23.294390394455434 -7.385936510308079
2294 -0.36652234865564454 -1.7944381825329578 -13.653939459805883
2292 -21.146588795459223 1.1586597317774479 29.85845123939602
2291 3.055539471040524 0.5273218200650416 -5.639341745946869
2346 -5.071071918673664 -10.531174868725062 -17.315902846363343
2345 5.227893212980943 6.760134911890926 1.3158036371886679
6235 -4.233570621947739 -0.39031775292753224 -6.484821808528058
2632 -3.964326635378196 -0.4149131865542328 1.2634781126879095
2348 0.023815821246437482 -6.046379980638503 1.189851080407441
1992 0.8078064278605295 11.10467458243355 -34.68558431128531
1991 -2.154304650555626 -3.017214400057399 0.5746864932159264
1993 0.7205176477626639 -9.273352895959743 -21.073459502337315
6230 1.9461576261658153 -9.390119518820201 0.5947666345301467
6232 -16.04036997275912 10.060030555025524 16.39638520088175
6231 -20.26471646045374 3.836368904285137 3.2300953142063924
3316 -4.553100268936085 -26.289230245688135 -3.6927968412624423
69 33.93738256158359 11.86153406509092 23.795441187040048
3319 26.05281454048155 10.310147096123854 33.863887453547754
3313 4.326856081377124 13.055902217552426 -7.1138133925003535
3314 -0.0919746380964146 -3.2784573849779295 2.317632197067165
3315 3.7697460933612157 10.390512584138307 -1.0902690679036118
1996 -4.331303587543743 0.48740762795587017 9.308575625132132
1994 -5.301706622203246 1.460124370776339 2.812937802658165
1995 26.687743522136895 12.36398279230418 -0.867536364129274
3318 -8.293520710164469 -11.005592237453971 3.595650594873158
3317 1.3490011151962293 -0.8971288552111292 -6.8016482802431115
1997 -2.950794864669994 -2.8453148735114615 -6.973504970551603
3320 -1.623533590070307 1.3519250169214518 0.5559961300438003
70 -13.997638462453681 15.678292337626074 13.497696197612617
2637 13.204112596534507 -0.18406270661301818 6.3252297161924105
1998 10.699645941906006 3.90585993595782 -0.1327416429853659
66 1.8447632651745247 4.155716517645225 27.148199877074717
67 -22.148276900548403 18.664095491752995 -8.648265078906428
65 -1.575852200350524 -0.08795581626178989 -1.7970039223453869
68 -1.5142830172839576 -6.343112516538075 3.687051575841461
3321 -6.83573975841918 -20.811226733206095 1.313823737345581
2633 -0.40995688883882353 -7.067204075339111 13.398358421031611
2636 -0.6754006995163292 6.6410024063673045 1.873614400595041
72 -0.49295191559739476 -5.952606894002823 10.46080024846883
71 -0.9719796661735896 4.110286139660689 4.481872714795918
5517 7.08296853683488 -12.183094290931612 -10.55150030162299
5516 0.3320199261085503 4.456098745250307 -5.111411933264476
2295 4.375992144619082 8.387965250155874 -4.825804322735813
5515 25.438967389965168 11.11571094140231 -5.13937768992302
5513 -5.419755826608831 6.310693444766489 -6.489935980725398
5514 -3.9838129726619447 -1.0377803311830245 14.943953295371166
5510 6.323378913177871 -2.8708097031991464 -1.432916378060204
3799 -23.70167643979188 7.2074789871933165 -0.7829845718101973
2794 -7.571761535223678 5.957290358461262 5.111510349415356
5671 -14.8988642925972 15.386797759940851 8.116482799401721
2290 -2.3874560926430233 -13.118558426529711 -20.24806416494888
2288 9.11438078591243 -7.095186603029151 -1.4854910399909156
2287 -14.958797047997805 9.912930514483657 11.766466794975841
5673 -4.664296011866131 22.662152709436832 16.796894866559388
5672 -0.1212488059235083 -6.25060480484167 4.974153475870916
4970 -1.6353262612121588 3.3225602846654114 10.635658614601866
4977 -12.26813368111451 -11.571097667544745 -13.523655400938532
4028 -3.4166376561271257 -0.9294344195709524 -3.975202889294766
4030 -6.5411510948814975 1.4923014892743378 19.580395473534217
4972 3.0067580921160815 -14.066298359895113 -4.113170803719446
6274 17.832922521511982 12.325810295774964 -9.063053450351575
4027 -25.327618275859468 -10.26560700883355 -35.65037277790004
49 24.797960946457856 27.051645195760777 9.71959387872574
48 10.420538114871132 3.0932580272457955 7.252667451036595
4025 -0.32466191800288385 -4.426367739885844 -1.688964711219351
4026 5.377423072653041 0.3343917976956667 -19.62100385293429
47 1.2226477919052936 4.8562486329774295 6.090119329044575
46 22.916467746963026 -1.5005665471935206 -31.778368153021578
4024 0.32554919522856485 54.97340166305908 -7.03316537120573
4029 -12.779644453794814 10.584334446094555 -8.703882744710913
3806 -8.009860249248097 0.31422158144974627 -1.0600669747874185
360 -11.548753269573048 4.795199026109778 -15.015191144163996
352 -23.514714535189373 -10.005214622858437 -26.90069376359524
353 3.8532965768603873 -4.0759987179534765 -2.407957032510631
354 18.26398857355279 -13.329788291178872 20.103716947606188
355 11.12664183455047 29.166544738935677 7.207054785739586
4509 27.342682229329352 -3.757635963455558 -5.934400341806625
4508 1.5309879969072901 -5.465259177452899 -1.849422517878213
4506 9.737801660640287 -5.587669256605285 -0.5756888082832284
4505 7.758746787757055 6.932192687641026 3.7150951123897413
4502 -7.577904248122576 4.168908301912842 -3.6633455665920422
2474 -3.401583203188931 3.7142649339534097 -2.8913705079000827
2471 -1.1039190056438053 -3.534502118372865 -0.07749850667250473
2468 1.4532550437010632 5.730248803793799 6.467390091955183
2469 -11.430948475039614 18.195401687805884 18.041713385481174
2467 19.685101179081965 -26.226663683010674 -3.3320234970110234
2473 15.528665982333171 5.367877879692676 10.181146579888967
2475 4.560055939963291 -9.951419567918498 -4.127845642772105
1313 -1.355966577537746 -3.047283545750857 3.168121377869897
1314 29.036341336346815 7.043785936620133 -1.4970143285036375
1308 -0.17252659560231004 -13.16328230930988 2.703909027250015
1311 2.4227151614994478 -6.358429573577539 -6.466162525782997
1310 -1.877408601290227 -0.2718722672497919 2.2502804916284633
1312 21.810615491351808 -17.09775179150194 18.95802825686394
1307 -1.6193082277868365 -4.146564881116935 1.9095679814478776
1306 -2.2635721107290823 -8.446219441407623 -10.424586201251755
1309 -23.677336418368256 1.7738172735605604 0.3906590780978129
4507 -7.4527090132349105 -1.0249261562924035 -1.3487495940328422
2472 6.834507517012352 -10.956435562250407 1.3644427159124959
2470 -1.5026021914088072 1.5287667341937736 5.177413811239838
4504 11.337274519692444 -5.297299441341144 -24.07983071412144
4503 12.837532111802322 -5.48502845455229 -9.365098799374346
332 -3.420800395852922 -3.773957138921937 3.273386949508539
356 -6.554551253621803 -5.510985022824189 1.3289850503130454
359 11.770732398399694 3.2602922330207185 1.2038809102828207
4057 -12.38808612003622 7.185473107831735 31.591576185297747
4055 0.9328570929943973 5.60935294148249 -6.557262275490326
3634 -14.243537457553426 17.79077121685282 -9.258974048446206
52 11.985553784973671 6.974912530531487 19.052610638480157
51 28.818972630233976 6.694111525996212 -28.728611217736336
50 -0.3921783551856217 1.5452002892997236 -2.9045522959301637
329 5.0458524010022225 0.934792172201483 2.877104705931801
3306 -4.877213531817796 8.810711564647907 -3.4988616789667724
3305 2.3161124307899166 5.190736643854612 -2.519106137424082
5097 -3.6989266520059343 -7.190532848673843 -30.523707068249955
3309 -25.83528430424388 -17.604297007812566 -7.404646011346673
3807 -17.886086818301617 -1.3952980931205459 7.313611817094813
402 -1.7115455170184373 8.214193684716586 -3.264549033504306
5095 -32.748871373055856 -7.995867708144292 38.120252476932016
4056 1.6665232334644569 3.5124562521701157 -22.539992462062518
3304 -0.32111907088166464 4.152858152795751 -10.179676961468957
3952 14.897133175636558 1.317919876177968 8.42563283206546
3954 -20.71797590408897 -2.353396447393239 16.916031889022356
325 -30.929074413499272 -4.618481745471725 -3.6301587698846287
330 9.240067009740665 -10.414629311780423 -0.3782462738995718
399 13.01751931311245 -26.281903655975164 -22.35371440374596
3959 -2.705694056353063 -6.949964845466616 -3.750475141369116
3955 -15.323358918965575 9.867498233888645 -9.893301180194905
3953 1.9290110380987544 1.2918242106101794 6.649478708799681
357 -14.930581110321077 -2.2908900816367215 1.8951842419765599
4501 -9.500165593647905 21.21622646046353 10.946069647924173
5373 -2.3195427451703687 29.991307316957098 -28.930188170845636
3765 4.821227486395002 -1.1159722744610905 -26.07903846310188
3958 7.255578603265269 -10.310339125845017 -7.9665144347076975
3956 4.947786932213553 1.9895940323930719 3.341637550446534
3960 41.223456926891934 11.109124531563108 -17.688866690795415
6280 12.609837555186314 -1.3440644273858695 19.17106856797028
403 0.9601377934444656 -17.00678118856571 4.246709843377059
401 1.326781293538376 3.7725842506150404 1.4656378093804299
398 -6.66326402181108 3.3474216948448205 -2.1983914428467144
397 32.50018658547415 4.011603173689698 -5.701489968773561
3628 3.5674171168156525 24.00240061420539 14.939662205039014
53 6.983237405295268 4.609087071627315 1.9498373965634401
3633 3.346233222868658 -8.495021907483457 -28.32521379613616
3629 4.268318789345063 1.6421628447607692 7.339380307790763
3632 1.7847051708181456 7.775023376837724 -1.4538364850063643
3630 -4.231043473592771 -14.498643905193504 -11.302842019553959
3631 31.616345148449422 -16.769962147946345 17.836494839986944
1129 -15.109857621348235 -0.9286654824996369 11.786285764474552
54 -26.71200143798207 4.373613985118786 -19.255282657881597
3957 17.055833322658206 -0.41664821624446896 -1.450881826055714
5368 18.87558589494149 31.658573960517977 -6.700520682691414
880 -37.83762797774624 -1.5570606003534238 -2.4083416044654453
378 10.285732350574612 9.837486045707855 11.225279967508294
95 0.6734077657297478 -2.1064310277066913 0.39803083612767903
98 -3.016745807000351 -5.645025120786614 -0.22310420678934814
3024 28.11193538840892 5.822539797437805 19.069353536341687
3023 1.999619360720047 -1.918521159363903 -2.4805160772768557
3016 -12.785218469624597 -5.5324028772478835 -1.5890700951236842
3019 22.174634828974416 9.03425232151316 -10.329810263613266
3017 4.536502147084262 -0.3119939228315875 -4.231528943006663
3020 1.0246824715888097 -5.360877485339904 5.523838537646725
3018 21.373088183017334 -19.234764761499676 9.458939401379933
377 3.43520472402867 2.107296568303528 -7.087825651741343
879 12.238779560926682 -7.909758055751008 6.548755058272156
877 1.8105759019683063 -1.7975025661249273 14.146052950556983
3021 0.827855284142798 -5.874958290950584 -8.49077656422363
4491 -4.165642221134585 -6.336196464417824 13.94710298503738
4487 -5.57692332377816 2.67904682498962 5.390602857213125
4488 -13.980074230093084 0.2491056824853684 33.4461593065009
3022 -41.76514010895101 -20.7762099868887 -15.444744804322518
4490 -0.5642290153662156 -1.2517954364355954 -7.392040849237353
4485 -14.351239175934912 -10.717531007081922 9.92209474592899
4489 11.465769695382763 -0.43726648992945955 -11.622798349629853
4484 1.539227511261732 6.1200249095645445 -4.92278461805847
4483 -6.289397110926573 7.041841847181075 -12.280669359810208
4486 -8.874826013275008 -0.375604275216351 -10.355757478181047
374 -3.333618939741459 2.79453936962598 4.53697471718571
375 7.929275314669836 -2.1771046728084937 -18.43229189480401
372 0.3130911196948085 -6.952187861678518 -22.573101329995207
373 -37.80721410263568 -14.98674889966853 12.962355554467496
371 -8.117394130742824 -3.07313428726958 -1.3230822569517506
370 0.39652649264495843 -8.250589904434253 2.5517117993819114
376 11.103573475102026 -11.166391485602317 12.407166189620463
1947 2.5413862506011853 15.03297730784505 0.07303504438164006
1585 1.8036405072932125 -0.6726135121266409 6.594848064642672
1950 15.779092000037355 -27.821419828230013 -23.895846820475146
1948 -7.942532681172026 21.128470664164848 -4.330146654201156
1945 -33.44640821074868 10.79018451949165 -14.82148827410709
1949 -1.7094609657952824 3.7425809535117414 0.8083104101409647
1946 -4.073973698690109 -1.9959827714437186 -0.2258689683821872
1588 8.872311123837987 -16.50975762790316 -15.153871869702444
1587 14.868145608029964 5.540585899034161 -11.015511350757336
1586 -7.516664583812891 -0.7235475661355965 2.1089730519409473
1951 3.706361062897406 6.281148593604417 -16.38132703602418
1952 -3.8053449830601784 -1.1710026311141153 3.1404998194318887
3635 4.283238893248279 -1.8352356348041199 0.1765778004786447
1953 16.609512452361198 -1.9002672672627892 -10.360863999313104
1591 6.748292712524868 -8.044738115918747 -6.75619023816299
3636 21.911705311431792 -16.804228837720736 29.091630598055918
5369 -1.703721839589157 2.2323284969375217 -1.110671177922303
5372 1.1244703385058832 -1.3816374942933263 -3.387570498553877
97 22.54358532656821 -19.855584487401735 1.4279956546050243
3769 17.84051439310463 -0.3157500341420883 0.6682218900884349
99 -26.870834924075695 18.36941869257708 14.812501369491807
5176 22.69934277185327 -22.708946582862314 19.09724008289145
1589 -5.63543593738467 -5.4349274261208524 -3.206648698782926
2801 1.7118483201671395 -3.2088811838774722 -2.430526599586332
3077 2.2554779281251425 -8.027831531935156 -3.219800334883161
5370 -12.820872011152852 -13.569502530828556 6.7590521002206145
2802 -24.802296410489284 8.108494677533338 10.049953551870455
1178 2.7066855142469683 4.233376882349867 3.017967624009529
1175 -3.751586335923812 1.0835778065311887 -0.9131262535296132
1179 13.8840162353256 13.333927723066724 -26.233482126446894
5177 -0.4372619140319227 -6.152679768277536 0.04710356294083555
5178 4.884420460027464 -18.82146345910604 7.485665283180962
1117 -6.597365840616876 15.830839769316286 13.425286484640111
1177 17.10529535879614 -12.860219058281304 9.725209924169596
5366 2.847015563373858 -1.6475188395522995 4.4335947479284155
5365 -25.310675201762596 -18.23731250510948 3.147455280436146
4309 30.215903918050998 5.040228738290307 -2.731046243841239
4308 3.571383439970016 13.530686534491924 -2.1286771898385526
4307 -5.533649764999704 -3.2842200949440103 -3.6083689558624505
3078 21.071729178484826 -34.50326421513226 12.981913986466227
2497 9.660169781154204 11.097119569758208 5.930292451819158
2803 -23.03013272032851 10.435090947202442 21.74330061507485
1590 -23.37314251253095 -36.28083077647046 24.85251816158268
1592 3.6528490425976337 3.394696271424098 -5.147553244088358
1593 -2.9039231246744373 18.070257002026885 -21.09691205263496
5182 4.758549296048682 17.576855985097374 -28.518644512764833
93 -1.3956975413364368 9.998103771245031 -18.53949735183457
1174 -1.0321438731898118 -13.550689901674536 -2.729024096844429
3603 9.01626504934751 26.66498288239216 8.82709378649194
2494 -37.23840044804527 63.173089740762244 3.348101360049944
4303 18.50394580231288 -12.007778987369603 -1.5970191884702165
5367 -22.44541753982278 14.682428443429783 -3.7168636727014714
4731 -5.1205919513091205 1.4639641097849128 18.813278681642878
2496 0.34622968853760716 5.371085765473627 -3.826595475472083
2495 -4.350718004782617 0.15138058419190928 2.894063985008596
3763 12.90912406583191 -0.1435044207778597 8.632763377605544
3767 -3.3660084420597034 0.9228115540979285 -5.029695065216915
3771 13.29339401055927 15.77554979138466 15.166649090631791
3764 4.8775976696332055 0.4246690471348786 5.447707813650844
3768 21.559853745981304 -0.5179184531079514 -16.403474727400464
96 17.37189876155647 12.045785819772721 -7.6228021403812
33 -1.4420172131088798 -8.723921386566577 -22.37410195096283
1123 -3.331155412805291 -11.441815675322854 -1.8828998723830872
3000 -4.441618101929771 -0.7795487319543121 1.9759411514599192
2454 -16.203569010482166 18.432395917265957 7.281944009228843
132 8.26500950167296 -4.7744924243083435 11.078752885361057
134 -9.279603964034381 0.4830914815980884 -3.6156917434529077
1121 7.455480042536474 8.823179645278193 6.489548914796607
1124 2.002639084619607 1.043860801058048 4.634594593126547
1122 -3.9230992821722355 -12.635065121516737 -16.44103405858334
2800 -0.18065209586148182 18.446795322140687 9.236289812150392
5179 -32.0298425648642 -3.3643700420912968 -8.642922558694444
7 7.826994730555301 -17.882782348001456 -17.235490838667985
2999 -3.646215159629108 1.4153063973463444 4.080318911111966
8 -1.3644525684184756 -2.516013932187755 1.0182462649021613
133 -0.23635264789421864 3.9022115859568003 -3.947528114954232
6 -11.099222302744321 20.774633458979984 11.604624361095752
2451 -24.383337048561803 3.966517516837506 -11.558449569156425
5181 23.687194470948754 -1.411611004578697 -13.497159474112886
5180 0.8010607822777605 1.2131219889374165 2.0542941386569478
4 18.967510405322436 -11.43922109729816 -14.614547467586624
2450 -0.6679769231762596 3.950985253859185 -1.9788657362010846
2455 5.9058435817910215 6.1370618341270475 12.611158376558333
2453 5.905012568445798 -0.7346935556758267 0.5772004117283113
3004 -3.3060744413471403 29.914356872605012 16.457449698921593
5760 0.06179623276124035 -10.963035404764982 -25.31921818996055
5759 -5.005220132947293 1.1587443682623486 5.374857464113108
5345 -5.89419534175424 -4.4995172885827985 -4.593156321074365
5342 -3.2749574665907235 1.7393535442599384 0.5756187659168314
3006 -10.919825810657839 -14.213224762309816 16.79051379213707
5346 25.215018268277902 17.008922003057712 -14.305165063211573
2457 -5.7832864988360075 1.5771691357519186 -38.44927930240278
2456 -4.48033138328528 -0.7718323839102594 -2.802193751047392
3005 1.1194456246269495 -2.5378270797538804 -6.265369124395268
5343 -3.0456138635910843 18.498349209825648 29.674424746532413
3002 -0.6739968021073487 -4.396443132276189 2.5718428653179037
5339 -0.6885469333415265 0.9700250115264472 1.239316894736483
5338 -15.872209531959182 4.924387128600293 -22.273007227511197
5341 2.282463798533928 5.096360704642151 -8.781137403484525
5340 6.1746461846288865 1.7519884165017832 -13.30266189744767
4221 -1.740553918109034 -17.944221072796505 -10.515818639571474
5344 -18.574411702062765 5.510459924227039 -22.98509604382725
3003 -37.75794339728111 -5.220574892448027 -19.082138503010057
4219 6.758741036212645 -17.218465033502433 2.5494439295590188
4217 4.998343382042948 -2.252143264716629 -0.8397636410004874
4220 0.42655815083506704 -0.4805094351791917 1.5205592365067495
5756 0.24206668409108908 -5.130963696239526 3.87164814215568
5757 18.347499512563513 -2.91543445573079 11.341386037050466
5754 -1.8390443273449295 0.5384144324949957 -9.92532352786844
5758 -25.80508573008131 -7.7031713504799395 -9.591335336385216
5753 -9.073162035256969 -2.5838464446086977 -3.4212214041285023
5752 -7.186287626069391 35.0061885017454 6.994376766765074
5755 33.419934500111246 -7.748724135973386 -25.723791511794477
4656 -5.945554151116615 -14.568737415628965 -13.070665210241243
4598 0.8736512760281274 -2.251034605107512 -3.557903831852905
5263 2.911065213196782 -6.668105800876689 -17.63757259102698
4596 -14.912914185192122 3.1017029319948586 -3.5897626686769946
4595 -2.301740548114839 -0.9215699621235911 -0.28441641763087855
5261 -2.1854243536958173 -6.172266549860647 -2.063354430360212
2 6.905633761042932 2.507682294209911 3.5641115891788258
3 -4.014513056746306 12.324570938859864 -0.06790805396598526
5184 -21.500097854225967 25.56731143706531 -25.529815281983694
5183 2.8799497212601053 0.013788760951033381 4.010235580811679
1118 3.187802136960607 -2.1087238184369834 -2.1609585826657334
5 -3.6270424073999874 0.46376688344504774 -2.804722594604541
1 33.487381960418574 7.516831356309935 -0.10789311643212367
6070 -1.5609345766971314 -13.259082798897078 2.182986583005214
6067 5.933783325747431 -11.924901581622377 5.18757659445136
1119 -15.776144796374494 -1.6867004339920744 13.025273609270538
4657 17.664756652313102 16.266426695768164 9.723130615104102
4655 0.020259285821338756 -4.33646559586225 -2.851077376910192
4599 -14.283129251502986 -4.520736653939465 16.426941801106345
1872 -4.818003139789511 1.5824711547062642 0.30990684144081143
131 0.01695555909302588 8.63667059708434 5.202552008267655
6068 -5.550716280327287 3.5706156782094274 -3.279423924238541
4593 44.684558523184364 9.619439435311135 -0.3252363017726687
129 -7.488644423075673 0.6271747758287853 -21.324687816679976
128 -2.693419861116433 -4.847424728358866 -1.6651572659269351
1871 0.3911123395544018 5.154893158586308 6.028678106754693
1242 -43.668514519386235 -5.495531788570678 -13.915613386660766
5262 11.09095174434155 -5.611087887099115 -19.827973359489594
3495 -7.05761549693835 -6.570626137928365 25.66664536585163
5265 8.332845512514734 33.76599418177495 0.032703557321671045
6069 1.8939358031531626 -7.669025805734558 -30.706712926706413
130 6.714900326307589 -39.057407042056596 3.1285156103485954
5376 3.8907625752972628 -0.32210195823503857 -18.43746479265549
4218 -11.101782252511294 25.974526675349875 -17.00737150668631
4215 9.333020018915423 21.514900131791688 11.308435520344613
4214 -5.053319905806457 7.128207789304249 4.359280643612186
4213 -20.236647920232564 23.063573667913708 -19.744723356438968
1176 10.56717762292935 8.639693320781578 -32.52031660992846
696 30.44643459658954 11.879669172327954 3.92402153383373
695 -4.332209658067039 -0.22679310273776362 -9.795713017424402
694 5.418041336978907 -26.108317489988735 -12.017959249872867
1120 -9.811731615029252 -11.272073163828509 -4.779505664403692
1869 -16.06708998137422 7.331102688865397 4.667058732545823
1362 -1.898506167083883 6.363149114207106 9.25049133003462
4654 -16.69194729324099 -2.0534124175862147 -0.03852633518345058
1240 1.7349146826097215 -7.289186605552089 13.87265379895692
5374 -8.19528367984086 18.715484647429097 -7.1215514104601105
5375 -0.2032163226101531 -7.54219242732941 -0.15855897753657733
5377 -24.763038609321647 -11.029839054527033 13.363224732401408
3292 2.8586745520588037 -6.603162399540451 16.706105677151626
5533 5.342661960273373 20.233195582472348 -20.1024565729925
5532 -4.798164063140952 7.326896879442221 3.0598632555074463
1839 7.676857826093098 -5.823650877686222 -11.91978385252419
358 -13.413781492769091 29.849699067440664 -1.0201744725469435
5098 1.6756989794946053 17.13439519529995 -15.196347986365717
5096 0.08611799682103699 2.567739365410915 -8.343415360546976
5257 -4.5939778883406985 5.957584999424236 -9.199491620262004
5258 5.439213632296829 -2.4524790277460395 2.0024832228371885
9 4.546524822395429 12.191948478436666 -25.249846687416568
5103 -28.292486597166675 1.604893904683397 -3.2782141361759534
5102 1.7648798096173102 0.19117327954675292 2.715245178122035
5099 5.411510058820565 5.59120027328499 3.4905838406500034
698 -3.1331536670324414 -1.0985398714576868 2.806688658475186
4216 -1.168130381739861 17.410521919892552 2.5189839281425854
2281 -18.390317622011025 2.0221129011394443 12.67621842048415
2280 -14.209483814392188 -24.440059571702605 0.9177928506970734
5874 17.524789423389546 -0.5697352183929771 3.061716569883382
5104 20.815414249106144 9.724445209156503 -15.747256454443205
5110 10.877375851191895 11.709929035538012 34.196649109074535
5106 27.718438843644396 7.683357033630122 12.333956281791615
5821 15.780678400636582 3.2663223015344363 -17.826661850456176
5100 41.68273575343276 12.029116933942975 -0.18390249927197075
5823 27.494429783096486 28.476567369118488 13.595652109433473
5101 13.822397646678265 26.026403425472196 -7.972117788671058
5815 13.55997604202425 -4.641883326428575 -7.610482351466868
5816 0.49911744750210674 3.4466070802062214 -2.6654607013628517
5817 11.436672951647694 3.8243875397482774 1.9751308782658805
3361 1.2277634777622521 6.022117052457524 -9.194122217713119
5529 -0.11941415997110286 -5.455428484553328 16.391417661723597
5528 -4.979203525257283 -3.346120530619375 5.361976742396191
5819 6.905165915253919 -2.0715843228000823 -5.2027338426948955
5820 13.326746205178233 -2.4615655390064473 -21.559492038264036
5822 1.282946031538603 0.23407487683377826 4.9380152237900585
5531 -10.83537265267174 7.2795313159166035 5.553053157777569
5527 32.49729656400156 -13.596971299138342 4.988730616807324
5535 -18.658820566464925 -32.660657703989294 10.627835004562025
5534 6.745077951183242 5.102768303095928 1.96833070219836
2284 -26.37395704752367 25.111779508022703 -3.9227726194714316
2278 -6.682850025664921 -6.8907316387703705 8.008335443613834
2286 -11.341197991992836 39.88933358742996 3.395281782067457
2285 4.218770069540724 -0.792114236691979 1.7850520708183775
2282 -0.6473213439122073 0.37532733344586533 1.4653775707230983
2283 -1.7857619228523023 -8.984885083125368 -0.5280467529188951
702 -4.29391784861853 -9.24269353043993 -26.743334210120963
701 2.1101640260707595 -2.1698800855227103 -3.2790838774116238
3360 -1.631434139344446 15.916354654474373 37.67052498800088
3359 2.232956074003844 7.408433676089577 0.7245015119386842
3364 17.96034735328898 -22.484065650425908 -7.726660847409682
3362 -3.2638505250530825 1.5613927449390752 0.30645509547221633
2279 -1.953679595588726 -1.8100566124789743 -3.77166880874557
3365 -2.122366954351344 -2.211848251023444 -4.470253828406665
3366 -13.51422220762223 -3.543754214012394 9.276588232826153
3978 19.634308264598154 -5.363272226860974 -8.772237049694647
5112 4.7990869949139565 -14.952420719615109 15.26081852778942
3363 -5.116409135841152 9.286136707985623 -16.667665694107544
3358 -25.657231177953854 -1.9564922211879192 -6.14782475229548
3497 3.350311718688287 4.805141159245867 -4.509147821376634
5109 12.341749823786376 12.681417491248537 -7.815655282573518
5111 -1.4828055553901518 5.27758310025547 -2.20532679127079
3498 1.2845485389783073 16.611835734413063 28.592645192150624
5108 -2.6519927076247427 -1.8133237036656804 -3.481393590358423
3714 27.368799702324257 6.690780343096707 1.2645531505269774
3715 3.2489129099586935 -3.292562388835359 26.105005836268592
5105 1.412761812423851 3.9731823842222918 6.654036480586336
3713 -0.3312448704048504 0.7462574900223952 2.223581652924315
3717 5.3157026583087825 -33.60872759881025 6.061488163783452
3716 -2.2083360908535186 5.255859636328856 3.678933536964913
5818 -5.474809677720989 10.449405634777674 -21.688737140478967
3974 -5.247177353799504 4.191687421995301 1.5867228107305595
3976 -20.387507953814378 3.374665050734092 24.234984824368563
3259 12.37713772356432 14.47279434739535 2.918388965192495
3711 -18.89927706402208 -0.4768933365337244 -30.589126470573383
3709 -5.501855609909388 10.803780442290709 -31.805913968354627
3710 0.22362793612357204 4.283781996101059 -1.467026472616981
5107 6.799844562343206 -6.489008818221614 -2.526462699717581
3975 -10.37531417256196 3.237822311845742 -20.632620350964796
1923 26.599425928101667 16.439725283049047 -7.215567454209054
1922 -1.5136727907583345 -5.320081907530241 1.9492075462316336
3499 -21.770177053652986 -9.290553614180686 12.714929967578545
5677 -0.9929201440988935 14.641765856807647 3.1474082823538114
4513 13.643363422876275 4.037339276826108 -4.560645474724524
4511 1.2410165340248416 2.392235687119664 10.083928816579903
1924 -14.670843630245194 11.188975488941157 0.11339819703263032
4510 15.275800079088418 8.779413247865648 -7.029015647416684
4512 -22.425850047685305 17.134443556791048 0.17718422199695372
3977 -6.888342561458083 4.255510221588168 -1.558093920101054
3973 0.18574994136618042 -23.014686096317387 22.267558987958356
1366 -11.507076033876391 -12.365843906136764 19.91855685781594
5676 -22.832808644906468 3.1365730285678346 13.058084204360378
5260 -21.31586967861333 6.793339489963803 4.524823721248024
3712 30.555665518942 -24.528030915354524 6.822674315594936
2787 7.810678635098742 14.510308869231128 -26.18164577897312
1836 -13.608759999110541 -3.723926425666863 32.480625393293266
1925 3.928371356150456 7.983627411263966 -7.816719874684345
3264 -4.625744492781575 12.720401503147622 -9.37160866667094
3263 -6.730176205134544 0.3635195870318947 3.787025914179728
3265 -4.6699275811595 26.56310962211865 11.387511594377019
1926 10.842874322810694 -25.979537417402447 26.0994446241058
5675 2.4050546867555536 1.7151677824984146 -5.804540142060624
5678 -0.2643556199742981 6.67349085522343 -1.3292280861356756
2790 9.846772371200567 -23.279228821203397 -35.29289751507875
2788 -11.02568556362596 1.716620505057592 -7.803425455675094
2786 2.9562935795193246 -5.008529354154014 -5.683348903649255
1937 0.1879241374664683 7.9291493897338725 11.819391611425699
1938 15.509257823076732 -9.766758861373523 10.47566119218874
4996 18.85611125979703 8.29764523572296 -33.78781818000001
1844 -0.39366827359050127 -7.129597238674121 3.338896576221105
5706 -4.666097086410867 3.8244821238784428 8.869265352270949
4997 3.290551619140708 -5.6951658650065555 -0.5221015646203574
4998 -33.570216640069816 7.837855365639569 -31.238256179736517
4999 14.35269452780364 2.383185798391958 5.75186706430843
1843 21.234990426517125 19.038771290816438 17.343473689518643
3694 7.983561489224956 8.326946628528901 10.889053385512602
3692 12.555055593418746 0.7043637919884483 1.3895332075529918
3693 -6.300721110574617 -38.547835822489766 0.5606902254508997
3691 -14.791916868281955 5.615363039873524 18.439895697771455
5713 -3.055718478542919 -24.957609465290762 5.98888400458546
1467 -10.420215479808618 -6.082851445271642 -13.35070501136663
5000 -4.9629069988102446 0.6008088877522149 -2.2993885789961412
5001 -15.623969167553392 -15.523164769734533 4.732915657146376
5003 -5.280702188713991 -2.1724680764164157 -3.1628877036811973
1936 -1.7527891477279438 -6.727712393803062 28.121517906561984
1837 11.498111007339004 5.7328659012422785 -2.724101813584634
1841 2.028752677811412 2.528298703849878 4.049041954948407
3543 -4.912440630559394 -26.642630244461937 3.7595989859785393
1943 -6.974996257495266 -4.2676358157313095 -1.8722418530630076
1466 2.9191335202953432 1.3814694458789196 -3.17095604946681
1461 16.777071986400973 0.9348746357960926 -4.554325686217252
3545 3.4559667385862003 9.755753429814426 3.2177989059260024
3538 -9.803728624073313 0.888608344224322 -33.1418814365708
1462 16.73224511442158 23.238393240761024 -10.046401538309404
1460 1.3476814064703804 0.08225280230335609 -1.6554745199393384
1944 -7.164395130798885 8.145822563122005 11.427764699432043
1465 -18.48961511492993 32.71846715188145 19.174406994064494
1464 -7.754911738265816 -0.24908779053607327 -7.428897420258428
1463 -1.5044335733819671 3.8108199321881635 -3.4350495710204267
3546 -22.658908444379875 21.071874857111727 -12.500112939799987
1459 -12.569276516979585 -24.264501054581228 9.597836999799302
3541 -7.877222731369581 -21.687278452501243 -4.990183975421322
3539 1.9164879391487908 -2.6997563440225116 5.0376113442170665
5002 5.151290815263107 2.0433550302134567 10.2128330618879
5004 10.97434107388713 22.937191859268808 2.2514532820768545
3542 0.7883235670758227 7.306556603559216 -4.588922100268882
1215 -8.365320293108203 19.02005168123649 5.920986407727514
3544 23.81331819768718 -5.027385130457732 -5.329859952543485
197 -1.694421115602682 -11.399504392603689 -0.12734009982164055
196 -2.423248698554986 3.291533195465465 -1.9023709526435333
194 0.24384972165210334 4.10644324992549 0.9749097237663092
1208 3.3975854222357196 -0.588910431294324 3.1774525423986653
1210 13.124130062811862 25.97845366496293 -19.817373928378732
1209 -25.074399654151314 -6.995568291860467 18.084556486050786
1207 20.261309632917825 -9.318388091180951 -25.72426986531201
195 23.693556938368125 10.425663905618096 12.227269928721539
198 22.872085329398075 20.24380154644698 14.217474751356269
1565 -3.2777626905059605 0.45647644960874845 0.16230226786002916
1566 18.42136599117501 -13.349365431223722 4.379660367108552
1562 0.9139429760697492 0.06755579975593305 -2.483696632805729
1559 3.1093059310422233 -3.774564461356365 -2.725892844025676
1214 -3.909481403762521 0.7678126778069679 -3.894650202983019
1211 0.0061083816238650945 0.3671242029960935 -2.0383782786023823
1212 6.75674391905281 -14.428884645797625 8.015594919650194
1213 12.157779572224996 6.141357022588891 -21.23491765098894
1563 5.572708051445849 -12.088371637596143 -27.974776364176286
191 1.6417989165840055 2.1425112252720213 2.522044667827968
192 1.6133849444809156 -34.094264760515756 -14.358366090595318
193 -2.4248872147268585 21.42981434181692 2.6068971782071375
190 -18.937551778974164 -4.561505064232152 -31.943711862136567
2302 18.807446433147184 10.666193853946632 -16.186708004659806
1564 -5.10264702337329 -22.430666340264022 36.32081464317507
1842 -12.260049571841376 -2.2443138611803595 12.592320019468909
3540 -5.358632091822247 5.8356767793751745 17.11559377443175
6062 9.014611919391344 0.17238150121839935 0.22914178267330323
6064 -11.211007633542128 5.43646417119404 -9.503163409448119
6059 -3.786711221797201 -1.0836396465182343 0.10959929683997181
6060 -11.00968666415306 -10.423381045932844 30.096761107132895
2019 7.202101210013186 12.694796427349706 -6.185766089021966
2300 -1.1945295851242586 3.7699653766593797 1.7417738655687507
6061 -19.773427794206178 14.849342796529866 -35.49626675386384
2301 0.05458396023611553 17.165543075410554 24.553990799156523
5711 8.186646670480014 -1.0147634935871879 -4.443305250253355
5709 -12.849868057859629 -15.337933260820513 27.447638670877193
5191 21.758302619178426 15.209331839994556 -11.535020167027847
2298 3.876968767257851 4.2895568147595675 -3.7917674077624337
2020 -28.667961613672723 5.597774209051869 2.1063887416729954
5712 -1.7271398694054358 12.223552512993928 -2.449897968041478
6063 1.6460537717524766 -1.2926863735919896 -15.897574264590425
2017 -0.7013208925573513 -14.13982631981517 -19.06932699731742
2018 0.02505832442733936 -0.9010763641763522 2.295623983787592
5193 -12.567478368117472 -15.681212830640794 17.781022295660215
5192 6.580871730477216 -0.684835217054237 3.136848354064137
1560 17.312094241022383 -12.874210081734992 15.631980080516966
1558 22.032678227746086 -0.6644623145616251 18.792891391173956
1828 -12.798903662678144 17.006642642382126 31.333048239793293
1191 18.16195718530191 -5.147091177987021 -11.814298830553511
2872 10.731840885795501 -3.911625495796829 18.42287020912679
306 -8.322218467763456 10.64178666400707 -9.553350448436067
1197 -5.444421652707513 23.31153276255939 -2.970436023942938
1196 -6.912381783656581 -1.1872802605833153 -0.21144641586689863
305 3.797504505231342 -2.69591346848045 -2.2710166965406726
2007 17.214006696031337 -25.66677093345457 34.6956990163115
919 -3.78210458573172 -19.331259059817693 19.466093394836818
5022 40.030909509352064 -38.33276204543951 29.575114409080847
5014 25.185998061112535 6.41533052972453 6.86668719484044
4063 31.643499216150175 16.947218676367065 -17.014778333291115
92 8.17834474862613 5.995880601934108 3.2300242610577348
91 -1.868513904050707 -18.172170671617298 2.1487719803663854
94 8.023812978800331 7.062678914510252 -5.699769302799388
5710 -0.5760238583924416 -13.342768916371053 15.504611376081398
4068 -32.703837178231424 15.5791222087231 -12.70450504807134
4067 6.977459562269072 2.8626905287136952 -6.348600141076626
5714 -3.099363744391963 -1.748703431576006 2.4555271619707204
2538 -29.8442797599563 -3.01956481948871 -3.5899063334390764
5715 -0.3126217944617048 2.8124567894558 -4.194821962750233
1173 -8.941552481960864 10.320491670122022 19.438586016134913
6058 -6.858902216944648 8.832834133155638 20.53415523502578
6065 -8.84081680096475 -1.1295140373900174 0.2270069945042894
5708 7.1079002208428275 3.455777074260371 7.813254137893235
2533 -12.621637999450027 -10.824263055545583 34.50560069722506
238 1.451114937633735 22.27251480283216 -8.40871671496518
5707 -24.536760347441785 -15.210650885727068 -14.943399966506531
6066 27.183520805082388 0.0031129214369744183 1.4026573434651557
2022 10.936667000386878 -5.582261027812741 14.218874997329769
2021 -2.124112595997855 3.8682271048590047 2.129984371387243
2023 2.5607551095455463 9.8711681487271 9.090779454865306
2024 11.579749517276994 1.3019181084695868 0.7617119778506724
5189 1.47649754130396 -4.755886095529291 2.574881023163446
2534 -1.0278671721111283 -1.4826364987058238 4.557946955648097
2535 -16.521080714089972 -2.3107284103463597 16.55043961821686
5187 3.9957075373260698 -9.435210744801449 6.411418694837303
2536 -28.031057870529295 9.274760379172035 -6.720766260247373
2530 -13.343467975094702 -2.443910343810358 -15.556437518624712
2531 3.8943760082580154 -0.9877925922684538 2.0348957031781922
236 -2.262968540033059 0.5246986877893584 -1.5973776848262802
4065 22.559950014357984 7.29066608975085 -2.1127081350755605
4064 -1.4932263076160972 2.493664947097249 4.933455814610326
235 -15.529447604957802 32.94269217886056 9.667429533114339
4066 16.51119833925152 -5.883760773061926 12.956203373446098
2537 6.0127794587782555 3.0959052492768895 -6.6258843568514685
5186 -0.8341155205226324 12.279026207465142 3.5623720945067308
2532 -10.477952042638169 14.654757368827772 -18.31096512811717
237 -19.13011993657608 20.82682695201216 -4.395524647788577
4061 1.125728458505412 3.938431693298317 3.2691184786449603
4062 -25.597385643698217 32.91569101275947 -5.818273255709046
3375 -15.036127104950888 19.67730257286968 7.167905369748669
3374 -5.346249438612495 3.560832991897988 -3.6212004546338052
2025 7.705992755019936 2.372369202542645 -9.308300925063753
4860 9.39082746222721 10.924173449478419 -8.142863003314254
5481 -10.53194506237752 0.7722421635454124 -1.2594256963250805
5480 -4.331042828536358 -2.695965602520912 -1.1229304358047205
5489 -0.5459215327098301 4.545242490509494 1.037952730406004
5490 -13.27574527967472 -16.59624735608807 -18.640504786160296
4859 0.694164833468414 -4.491832613178082 3.102252134526051
4856 9.628527507718717 0.8121886954186289 3.1388224932089126
4857 10.801892407619604 3.42468415059508 10.527110941456279
4854 -3.6948478197261583 -36.102441308664 5.8545208485499005
4858 -24.435041947643388 -27.869317915178137 29.423111415553088
4853 -2.7154758494943123 -1.3302609410876964 5.733713809517069
4037 -6.148197311876384 -2.4216807686343733 -4.07882435687231
4852 -11.648614459641456 -19.71674660824866 -11.899926765928159
4855 0.3759679445341073 24.898930688284125 -12.351865503097248
4139 0.36884466276978195 3.9356355006089245 3.335806369627755
2403 -0.26765281107934147 -5.05633306281529 5.683569982495399
4040 5.6448870988560715 4.289162056176389 4.7793162872764405
2402 6.197861102160263 5.356659572225583 -3.747856413850549
4140 12.117134097353732 -5.072491215638979 4.164015848087258
3367 -23.71622139117941 -2.6604139435568825 17.69634550454283
5476 6.6502901831006325 -5.939209730306123 -3.2878597826562883
3369 19.616890876702815 5.699709895601539 14.481274564439175
5477 0.5968031196194928 1.7662213804167277 2.5881675499716756
5478 2.778920790745413 1.2414214759054172 0.5722902341991863
5474 -3.865281076684486 -5.4686184042927755 2.1953351244196795
3371 -1.5775938863708172 4.635176989112252 -1.1955843436607128
3373 3.3250353363140244 -15.98554782461669 0.8994780899533225
3368 0.6524632592148814 -5.821640424407314 7.424343429138309
4060 1.711434992951123 -13.787928557406005 -6.929764175771886
3372 -44.43162788063685 9.604056018567285 23.971308091766616
3370 1.9351453105139935 -23.020677580959877 40.49467032893435
5479 17.062498610874886 3.4806587851032154 -3.7677703305923926
5190 -12.585032045540299 -10.292597316169806 2.215358114087905
1171 15.851431501038467 -4.123402478984383 -1.8102464260809532
1172 -3.0408154066619275 1.3456230527043835 -2.2374473216459223
4041 -8.944711146467577 -1.3395672115201944 18.143074974524716
5475 5.284898486473968 6.487850624670592 7.7010451494657195
2399 1.812691734581157 2.436817415937679 -2.084345686137786
2400 -9.166990589121168 -7.056129522344759 16.548640354611422
2401 34.09254471064142 2.8450794722907 -11.835503565378389
5185 -12.571843208372586 7.021666019871459 -13.605246286131045
4038 11.27608784145349 17.125268764035347 35.728343604160045
2396 -2.134252215243357 -0.8942587961159977 1.8901195163953215
2397 8.978848674414794 -26.880898465977936 -2.4839546464484537
2395 7.552137668357266 -5.831827242550131 6.629836934684091
5488 2.619687226126858 2.1336764685771796 -13.106346795836698
5486 0.25036943618280383 3.4881187798082585 -10.113160987596837
5188 7.150435216602731 23.3203800701663 -13.517648209935317
5485 -9.019273927456263 0.44688886289518387 -14.451009197568112
5436 -7.135817961753934 23.32606029793671 14.296786886072711
5435 0.7541170790254993 -3.484693177735435 -0.6808731488623145
2970 3.74826731576827 15.388954708597344 -5.338280906157271
2969 3.502049328177751 0.46886436689620775 0.14354389518786856
5434 1.9188240849979703 -4.757563182975591 26.107695277167853
2998 -1.4715930561457893 6.7270169302930345 -3.98742683348425
4136 0.25530185770005975 5.912132479703503 2.77087144921326
4133 3.1270779299763656 4.900546933707513 -4.0921795303338895
4137 -5.799933735489658 22.670448894647727 -6.222807503474046
2966 -2.6406016252925113 0.5655599790445134 2.0231022927690328
414 13.20490231361358 -19.717213623529897 23.170748877687387
2968 -2.176674082759025 2.565254544490952 -5.599849440153207
5286 9.974866256564567 17.510397955844308 8.925851170626272
5285 -3.04542904251367 -4.544662896917511 -2.273408732805617
5287 -3.3315615361634383 -12.329028167241834 16.782226091571236
2398 -3.2367603936716405 -24.38994691464256 11.770655227054412
413 6.559623503664722 2.516998494690845 6.692645173310006
411 2.7689782580640485 2.885569357737606 12.230018074638945
410 -8.434972919528976 0.9881568737835934 -0.13969075466732597
2967 -13.215715518019516 9.984482655859413 1.5135773152274419
3001 1.656699096672784 4.6328764097688975 4.370305172048851
2965 11.726262208740726 10.254526153693687 26.52535697732166
2963 3.2665338405669235 0.9973762861320155 8.75872589904807
633 -6.606587962301814 -10.336873261895692 -6.074061598554204
2964 29.806840399517437 -11.914106558741972 -5.6610536588027385
5284 -24.504081246621013 5.231496563952356 21.644808406305938
631 4.8002714638445 -12.511453532517049 -32.391616703258855
1773 -21.824970232672513 -18.78661667379946 -12.012664848660014
6123 14.452184106857041 -17.73706081345475 -19.749425767281302
639 29.107635484061944 -4.180330824427597 23.73644779826669
636 23.260181737993122 5.291481365447885 -24.202576352740948
638 1.0738886851804608 0.26791942879045383 4.646739705475277
635 2.8840452665427274 -2.7713593401417174 5.250953249436554
637 -10.725085560149282 23.729869879290018 14.441187224277042
632 -1.158459081020811 -1.0867511718035907 -2.134780463602104
2428 -4.81993885015725 3.69006067796977 -12.773281428779452
634 -3.982034135838072 -7.232851092948794 3.347040350277012
2422 2.7596059062382663 -12.933131003216115 9.144162213816402
2425 1.6386817592544776 7.055712847189626 -16.010813419994314
2424 -2.8612816058212367 0.3467459540585145 21.881793557240535
2423 2.2752461624498754 -2.434664960753213 -2.36331664207699
2427 28.62758201543996 5.499021100608564 -4.126992106153864
2426 4.908755417203702 1.65258130649561 -2.57918074325393
6074 -10.007496144295747 -4.895795297154843 -1.2426152753326944
6075 29.23587471699451 -25.15384268730143 37.01771124777068
267 22.839178622387657 -1.124525998507319 -0.1272047358406953
266 0.06234719559020031 -4.535563419114157 8.868327133649355
269 -1.6797658855467792 -8.597567451337298 1.4079920981943228
270 12.431418051587745 -18.11715648822629 -9.019136260947134
263 3.0942868552064087 -1.8478996176433535 -8.672232145843267
264 -21.146956872970915 -17.220635195098925 1.9837825817531862
2430 20.864006919128848 12.996069487761991 9.096441769008077
2429 -2.7644007279456964 -6.469521176908762 -2.4231915975038274
2814 47.134698630994556 1.6687810888180283 7.053379891283788
265 -17.296696501142574 -10.649248327943113 30.587075174846795
262 -5.9105105574568935 -0.9061134048581143 20.960964910950484
268 5.850571337043386 11.362101542464915 -24.847175749143336
2817 12.571916322477605 6.512748087750315 8.606521484156879
2816 -1.269751093862495 -2.9543239338288747 5.305044203610086
2813 -11.315330988445421 -5.837851516109215 -0.21856477782750408
2815 2.7924270068512618 1.9241677793080105 2.8829179930819815
5409 -13.166368728132793 1.0182419536307914 15.20275137670519
2810 4.842866219430814 -6.026224761408424 -5.4882190235972
5576 -10.728589058606214 -1.471231937030975 1.0262297145226842
5572 16.84446871770012 22.068474670592007 9.590665479464187
5573 -7.388142736787835 6.201736827230893 -5.574946472285795
406 -24.818964718758725 4.486148938789244 -2.3123413178081287
407 0.6935222992393528 4.904475582808495 -1.223271509078829
6072 -27.429694401670844 -10.587316578934102 -13.790643575608483
6071 -2.4051063141080533 3.3210236104979183 -1.1164144357265855
6073 8.597296703449176 5.516075890492681 0.19026580029204554
5575 15.225949751912347 -9.88677856242131 -6.003864427867788
5574 2.0783248540343586 3.8960114317503862 3.949419248534084
2812 -14.957696907826842 -25.696984551867654 4.695842635618303
1772 -1.0379209570328574 -5.969829496383076 -0.5452870769033576
4663 -12.648372973056915 13.994913659086306 -5.180878617974646
4664 4.174473091986596 2.046406184562001 3.481960200460747
4665 12.383174922382754 -38.96039022003267 18.598238461349943
2811 0.0705106703148852 4.6164348861421916 -9.81638196120961
2809 -21.496138980922865 15.214726007919745 -20.94714658515208
1768 -13.626579047595126 8.664356138356544 25.753785585405243
2962 16.720754686644963 -1.35744419246259 5.071389900323573
5254 -9.837300966425166 10.063739555036651 30.519854978529224
4666 -20.056795955888592 -32.97115444756484 0.45710159814378665
1766 3.3513996131594443 -2.0173542780278058 -8.388566589306528
1767 -15.944447773961421 17.670619345864942 13.359615118067063
1769 -2.0776111069697873 -9.078430038904719 -2.0987767517931335
408 6.02095530697914 1.9921750148681294 -7.761448240944628
409 -3.9257518409970342 3.7977653911272027 19.57082276221044
4138 5.292665696364559 -1.4251161616792596 -5.96222845148443
697 30.155716984646507 -8.23157481287938 13.423519737263051
4129 -25.339485495854532 -3.395205394619272 -9.135080492235392
4134 7.0201166361011795 -25.600876487941623 -18.494647988847998
4132 10.22742292101434 -6.493473769946754 -16.947790959787007
5579 8.630043245154427 -2.3988130819885525 0.32528512989211933
5577 -0.3704185166777244 24.47865768521734 19.2422783804825
3240 4.310148711704861 29.86919495236172 -30.10442774333064
1838 -9.668891635923735 1.543463406516695 4.267741918141295
1561 -1.8876504389499498 6.697874909501607 -11.791433420269668
1771 -9.547478247877223 13.121162565762207 3.5822940543106387
4125 -2.297670102149859 -20.341149713320664 8.673310486237165
699 -6.845903322306546 -7.153282680249455 -2.4868428875283013
1845 -29.93848786402561 20.539864674424866 -7.047870603284752
700 -15.837576585319104 -4.196341871678682 -16.639453158938167
1833 30.52734819171858 -18.02342839660818 -23.010216417780978
1832 9.405165380699106 2.4439435069786115 3.536271060335776
1829 -6.940138658530347 -4.1884182365782285 -2.266921693339348
4738 30.059143675810844 -25.480873187781093 15.341445875122611
1840 10.597563616639643 0.22951660782338995 -8.664389183769197
1765 -3.8346811256645044 1.9640210755302943 -7.428535667809498
3970 25.093039479393 9.596935680361467 -23.528656421757628
4735 -37.62926256481662 18.531135377885693 -25.172857356444975
4126 2.078800141622606 -10.777155709217327 14.762268232481768
3239 1.1728683543095837 -0.9236030720272109 -4.330463194602076
5229 8.133268609507985 -2.7170927441636215 -4.792846468604392
5228 -3.0746604810474905 -4.313282217284076 -0.29109155035477824
3972 -24.67890017559772 14.541483350402942 12.037991684126425
3971 1.7324547687709877 -2.9253577313776318 -0.35800858467428587
4740 0.26632155149022996 4.408607995290266 -7.0176601382706085
4742 1.790503722303329 -9.47290462353108 0.7112237132190112
5223 -3.224971866051683 20.635174631775502 -22.781586634649102
3235 11.063049706044364 -7.639026513706481 -7.463503175113616
3232 -11.521857156758625 31.403268260755418 -6.296383386873226
5227 0.4953300104144933 -5.090027757955192 28.049089651188048
5225 -1.4801541174775439 1.6560567914438267 -3.0616227095138218
5222 5.345846665122999 4.506921586456428 -0.10651764205352504
4741 6.135035950532596 15.255093311451137 9.59207656777174
4739 0.019786496790784706 6.9617926736520825 3.942900544414935
4737 12.297072050375522 -1.5359183997445653 -7.915677106952948
4736 -1.5342557660615066 -3.607703774678342 -8.957415109473345
3236 0.10460342318034349 6.643137692032145 -3.6351010955270584
3238 5.014348200895159 -8.15123482590704 -5.142887347268771
3237 0.706237931267634 -8.36517100777897 -1.566807881046794
4743 25.67443084621917 -3.9235027509546407 5.9988586995382915
3234 -23.27708864179643 -9.87221513800561 5.784370499353801
3233 3.677901161355306 -7.952499996086667 -3.6487595489224733
1834 -29.666420913182698 -11.279217690744892 -17.952670692209992
1770 1.542589291848673 -0.2676031081347669 -10.935383561783608
576 5.2951332332699375 -11.25309188098812 -23.262373078960643
1835 3.8934256868228627 0.21227297513809307 4.8523000306806265
571 -36.736522199835264 12.452353951254468 -6.878042276239942
5226 21.508987126294542 10.495229569836454 -2.15525794153759
5221 0.3468916230135592 -13.697243368779835 -27.99126469738022
1831 -31.095123983971536 -1.8657314190086745 -1.4845242423979792
5224 7.9695872703379145 1.050554750798112 11.10159240710307
570 24.907521371368553 -1.4917817172806591 -1.624455738274768
568 17.256265117583144 1.1310187977163246 -13.803595756361606
569 -1.164799536703275 0.872659667390248 -10.388325221509676
573 7.926221791948926 -7.8715718506603976 17.931687821751513
572 -3.1275214321609823 -3.8075787684425078 -0.1891976639952588
574 -2.564787936597404 -8.923944811736643 18.731616545643544
575 -0.5400794277324555 -3.0819130095086837 -1.035146721372216
832 17.533210242480102 7.731005496889561 2.8012255434119333
1547 4.138097475675583 3.669495726250687 4.414467094535156
1548 6.512632786376086 -31.25199844142664 -18.775915627466464
2880 -18.417675653572264 -10.000169335469284 -7.250438305543512
2876 -4.420383129656224 -4.568486100780021 5.538347708690326
3245 1.8131779299151853 -1.7468660442631345 -0.14420146695675676
3249 4.848539330174725 -8.498290328973543 -3.6465584947663987
835 -11.793110007729087 2.917603716737606 -12.97831692331628
830 0.8294766634836079 1.407111666131596 -3.060282506989569
833 -5.7115750928549485 1.1102823844902725 3.9370947509301555
834 -8.249814757440841 4.055944259663588 3.7375516666335993
829 -12.206506140716865 12.184694208059975 22.392408854986968
831 -10.156719646181743 15.992280053745558 20.148491501629323
836 -4.288265570343565 2.0565331161308307 -1.263292748233167
3243 -13.14500067856396 16.66886374762986 -6.813867400589533
3242 7.5994190768478616 10.32432104874455 -1.1917293802746196
3241 -12.910172713309521 9.275707959720844 7.315577182025376
3244 -33.52114312614764 -15.950213837820726 -43.98764893665952
2877 42.33730987035287 -13.891084697773417 10.489777070226475
837 21.93691616963574 36.308495316769076 18.17847523064052
1416 -3.1858620199410823 -1.1649692824268736 -9.80029799223323
4123 9.565875761921 7.118370672354398 7.185281825386572
4124 -8.832293178643967 2.8221678397458563 -1.1039686354286078
3248 2.469941112332159 1.878007884741203 2.7450457674940774
2874 5.3895962104598745 12.964713737812799 -4.88966358357014
2873 4.493022257370032 -1.3676868517352159 -5.433308934555521
2875 -12.977327069214862 7.2130470279056675 7.968628743770035
4127 -2.5439246336512453 -5.126750753271788 6.999010874561531
4130 -6.804649214508514 -3.106465083885631 0.9634555133862632
4131 -33.061723160671356 16.38493842696102 -6.079128543125947
2105 1.65675321890191 -0.5045544384441725 0.7569608393897181
1194 8.22925568241987 16.576387312522694 -20.170983885485146
4128 3.547527126471615 -12.433162510817196 -8.72235651040221
2879 -2.498417930305719 -3.2596583478238204 -3.889759066644908
2878 -4.315028522959327 -7.509694369955624 -25.99338442602186
3225 26.6458529466149 -49.410389715298436 -5.779146417341258
3223 -28.111796872548272 15.938378132437787 -11.363971881801543
3226 5.049856592733112 -6.165003292154279 0.8401073193940657
3224 -4.311971916960895 -1.7686856304119654 2.392816310008984
5005 -0.5592978251257852 4.371321862310983 10.263954891491263
4248 -16.13991619113251 -23.80404586871577 6.532820873003881
277 7.015514303362404 -5.31445464709956 29.673218763371818
304 -2.6180315934165295 10.660079820150596 -4.768255771127369
302 1.4729443719069337 1.174551483967335 6.795793375653127
4558 -1.894008255071121 -0.6099864131469129 21.629681320974697
2123 1.6845446476131036 3.2716677817719644 -6.823665174519778
4247 -3.4322606334986983 0.07921432638876444 -5.259921329475425
2124 -29.803865736266502 -9.760794068126987 -18.998357969981786
4245 -14.269192130217867 18.442592535634606 -6.99891752538667
4246 -31.477265500436808 -19.798263891345997 -15.150212810638584
4244 6.515054034857833 5.889769266278817 -7.326256484341685
4242 2.004369592292636 -9.253348437492253 -10.164429072309026
4241 -0.14564004235711783 -7.694394361870185 3.303134047959992
2120 -3.8207852651544294 0.9406130750488462 -1.8727328928389164
4240 8.540386202521358 24.203480226715804 -5.007431660605236
4243 -12.84374299649614 12.056618172803873 -9.183633247475635
279 45.28186166181602 -10.716050482425349 6.8570506876543815
2005 -3.910663367285576 -0.6360335520905107 -8.585984628442956
2004 9.242667218102795 11.077820635672774 16.30315004502555
2003 -3.4445361679838453 3.911198890815751 1.1334150870826223
2006 -0.162561003432312 1.0983033684611692 -0.3287924085012895
1999 -3.507757413324944 7.010270378188526 9.792552224144638
2000 1.1068071848727334 -4.617723544404524 3.5339800012787754
273 18.79973415663431 -17.294020544309916 15.0362784579847
274 -9.49578840457532 -1.3134777589588225 15.14122297317807
272 5.159497712703153 -0.4187944798082416 13.177468226124509
271 -10.41102655497293 0.7236060570449021 -22.47741442890027
5804 -2.947560886103485 7.842542865596473 2.624462924136561
276 1.7196063693633348 -1.077080629162601 -12.4204554685715
275 -3.6301086732417853 4.286067216332765 -7.645187869471996
278 2.369366835507734 -2.960521837281868 4.771617662092303
927 17.440370884392117 5.715758126650362 -13.848639671968693
486 3.270778595764496 -2.590239659284263 -11.180723377795646
478 -21.241446310115776 -5.771237201856183 -0.23337111754705736
481 -4.502777474119176 -20.111894059954885 31.583920456218337
926 -4.1724870872395945 -5.068412361731893 -1.43890519189055
479 -3.132910114921489 -2.7840251823428503 -1.6773312926588102
480 0.9698095536261486 4.727459175506631 15.041354690353474
484 36.45993589406208 8.05491403748037 5.0979689168800855
483 -10.583297467991791 6.927812088933957 14.59007754222199
485 -0.7857147201128352 -0.7811275425729234 11.617595834048164
482 2.756278299136492 -6.003582873844258 -0.19613724693089035
2068 -15.642053698442862 5.565271090552735 6.897420397288145
2066 -2.7075647102227673 -5.885386915244197 2.1088824770733017
2062 -11.518615642026266 0.830223470620396 2.941803738896034
2065 19.49865554753646 -5.922694741998988 -2.6567822526203497
2070 25.25715316119853 -8.707534248373484 3.558067636300747
2069 0.8726750611488284 3.0919913749041306 1.1779507935055087
2063 0.5890961715866528 4.018403149670653 3.2164826687222017
2067 11.336032276381632 -5.783423650418923 -25.50345403881506
4266 52.90601574369273 -6.373842426652442 -0.9673920972754326
2064 3.682648012277968 -9.447031538457413 17.370717043701738
3150 4.01312924016263 24.77568277644012 -19.46663463996519
923 3.808256383885318 1.3917527103520038 -0.6907895082763478
2136 16.010968558949155 -3.2149921398752555 -0.5239909379411689
920 7.620411075146725 -1.3918552254470853 4.477523494360393
921 -12.12689201590534 18.500241540646744 13.263671899467411
1449 -14.032844468963722 36.22094207938974 -9.801870361632584
924 15.336220766247111 4.851252976349488 -11.99014227012289
922 -7.840392196587818 -13.752110666834087 -28.201807691161672
1448 -1.412751867694668 -7.766039581960153 8.019681343237773
1446 0.7814902035793307 -10.965297840196644 6.263674381140971
5072 -6.400497832322654 -0.3949385119930996 -2.080987573600399
5073 0.2885070153703078 24.25092324138844 -12.033243396535473
1445 -4.79259742916897 3.6793403279749515 4.967396012580362
1444 28.80796982537963 17.83553298605594 -4.040938254947636
1447 -12.436665894605284 3.0481007262989572 -28.46252577151718
1442 -2.4102568463029614 -3.6771376790462056 -0.9817997350837718
5175 10.293570539114311 14.630935166532709 -16.538748199638977
4265 -2.2754336356684375 0.47883851895390017 -1.6063417804624964
925 -17.053133342169254 1.4859629785744508 23.716405416180613
5805 1.3233185617217351 0.8048347147130928 -15.714945478645994
3780 -8.819104565979227 -11.906115234057122 4.577483328119856
5170 -0.5382352040101223 25.505361957260227 -0.06734397427133658
5174 -1.8380705319666006 10.371091591435963 -2.683572313612901
1135 23.655827107198704 1.944430086404933 -16.73313647671119
3149 -1.569109538462 4.080264255026516 3.6546633273146196
5171 4.229555695575806 9.420977704771929 1.2123630878450145
5172 16.60819036759859 -5.098025371579865 0.09695608941818222
2116 3.522692712736141 4.5258993905839535 7.126994835057659
5074 -27.35851980900212 -0.3290844859758867 -0.8795171278790451
2002 2.626048470057709 19.761015639103782 -0.10250722251323671
2117 -1.2273278806542396 -3.2291579138532476 -7.5742637455922885
6021 0.13336135633137014 1.6811013791697236 -10.444398258481597
6020 -0.3345100400931483 0.40771180047030003 0.130057991555605
4261 27.133412097644154 -11.581995315704203 7.777645071272686
4259 3.0587047072314753 0.6802884566637049 0.9688579453315342
4260 0.6422282676741359 29.019065077920473 17.932011050356614
4258 10.337035989549467 -3.960122446723573 -16.164513259673253
1189 -14.392870109194392 -28.238743894837317 2.1759040303825903
4264 21.13936088700841 35.54555909031728 20.513991690794786
4262 -0.5912217641476706 -7.737723086486088 -8.446043294962639
4263 -19.14093682817501 -7.416874035046337 48.762034167437655
3779 6.329426079384721 -1.7088068589812062 3.415913806705258
5168 9.162164545330649 3.687193935197619 12.275391884439289
5070 1.969318255723369 42.02613997120316 7.8724069173557005
2118 -13.92666628774704 -11.138446234777636 -18.34869993566712
5124 1.9083667085902312 -10.290275683788677 1.7642881628572382
6019 4.831433379975818 -2.675557130271445 22.438875789375757
3772 10.353235151086295 11.253711557517482 4.579479231578178
300 0.02937531833291073 1.3000460635486935 6.297193202739829
1190 -1.3136091403638546 1.6021332418339285 3.4725554877274214
3775 -7.407709471075084 4.794973748556307 -22.315596004360682
1443 6.829382420698536 14.23100023506012 18.059507398249007
1441 -16.337277755377304 -20.721028158138065 21.754204317546456
1138 -22.12256260824609 -10.621340674092417 22.202823955268727
1136 1.668428635660333 -1.1920335648014353 -4.786631202841026
2139 10.298041030481818 2.137415495134301 -24.364162586326827
2739 3.1487814103238585 -3.424004704129542 -1.420033378755596
4039 -11.909818364683348 26.13870178509327 -16.83123504436932
4033 40.482937533972404 19.007518189729517 7.164323599762539
2937 -13.488713895304464 -18.874578399333508 -0.10538989262353188
2122 2.507830855733419 6.89761342875372 -5.489455170526871
2001 -13.087448385033259 33.49813593064011 8.267124485295081
2119 -11.676029007029602 -7.626971149227377 -0.7859221940317571
4034 2.6133044027463113 -3.1545807707774207 -0.9853413614387441
5069 -0.5642428812167875 8.17572832125866 4.444308295794234
2738 0.5142554471835697 -1.313127716178786 4.676625605635361
4036 10.391486734612494 26.30637172069308 2.515186744026585
4035 -0.4354493927910893 2.189592730086982 15.229142048455529
250 2.3810743705904502 12.700234045643324 -13.534992254000153
2935 -9.834615669044421 1.6892042782181527 0.711169227773782
249 -29.165518932078907 4.713597368401415 -1.3876192627839095
248 -1.3556303686871716 1.600068019853992 3.0949611449534347
2940 -0.6670217456126117 -9.392515623893495 -3.5198556820709954
2737 -3.405159764746664 -26.869298174436206 30.20193159425279
2740 23.366718951938363 -10.094405204945769 -13.426937472073497
2379 -5.540975982559019 -13.507659325531092 -0.898604821588472
2380 -5.7199040637088325 8.469041532750973 -9.478876877423234
2378 0.44544228675383757 -0.5534584087406987 2.3802193065547472
2742 -4.431605857285051 26.25258957947928 -8.8374854621261
5416 -18.844732260329856 6.207904546010739 2.1028376388421623
1266 22.716789483314457 18.081454135005885 4.177335435548602
5415 -31.474203722071177 36.49068511980225 -11.582132657646305
5410 -7.500443520301184 -5.003066633726877 -10.774636580855592
5500 1.0164992436184552 20.759730428486577 33.27576112184946
1261 -7.598803772184935 -8.623568580815707 4.963221753409442
5412 9.087814740280956 -14.353995414572973 -18.225764974064145
5411 -4.131896967227774 -0.9968851882524437 -1.9977950155596473
5413 -5.088203376549491 8.484030355060293 2.159297972805216
5503 6.057722156174921 0.8524810331944882 14.918643226845273
5501 -6.890641554094948 0.9136863209762192 -1.241400177599024
5502 29.935722403963766 9.675923534003617 -3.3847526228283957
5414 2.072573750543287 5.826791343333924 2.151422519229736
5506 14.996648151135268 24.930624644060646 2.703662857922825
2741 -8.516896838713093 1.9388076051881225 1.1470856399797487
2743 8.774322365185238 -18.63159642573401 9.740154508901304
2744 -3.917613306016789 -3.2891982521944008 3.34435175243583
2745 26.1840291825771 21.908379073583085 -8.961810976843406
2938 30.823094562065414 -18.894546006657624 0.12510678481164264
5508 -36.421126656788864 6.087675343093538 -6.939766492554172
1268 -3.4306377253729803 0.37661500360570926 8.01036698839078
1269 -2.222229868527973 3.1226668008354324 -2.8931725336696688
2942 -0.4477482055410405 2.7147154442674415 -0.3761824350353719
2939 -2.9659887714839943 -4.8458750465231875 -0.06947840289244848
2936 1.392517930884587 3.787460806541662 3.7364231347177954
2941 10.289428291854772 19.453524538867118 7.769857298243714
2943 10.831675997349379 -15.611828200605363 -26.645249949735614
5504 2.8053147874929363 -5.555727994838554 3.602753950702398
5507 1.9295416665038316 0.3492398998758074 3.5926154676432387
5505 -0.682867982058229 -5.484392171518046 22.885584378635073
5129 -3.6719125937287376 1.6505540162890053 1.7663467987575199
5130 -3.3097751777281768 -20.41537237649051 6.6917902984422195
1764 -17.370547368783463 -12.820134634291842 -5.778963912980059
1265 -1.9607973351184333 1.0898375369328428 5.246086986621183
1262 -1.4584162858706877 -2.534842789017591 -11.470680657205277
1267 -17.85105937569888 -13.58430661060712 5.866384813389833
5126 -5.76184660915242 0.2500296088767787 -0.6582915282709711
5128 -3.8350143865477713 10.049091631529695 -3.1084687897973815
5123 -2.0250017628738046 -5.882992564726758 -1.670287842790647
5122 30.21179450394148 -3.6579926407837307 -0.4846847036602381
5127 3.78747359813272 -2.533941525720307 -11.863997676594217
5125 -2.9127101670943665 13.622775335241625 6.877491096735659
3401 -0.4189004802364135 2.708956563673838 -6.395791500479832
3402 -0.21446040198047914 17.076978082714653 -13.773271335937585
3398 4.015576505851342 7.101638396015536 9.45968937405853
3400 -16.160256149875977 -30.4115272296549 15.528957257422348
3399 12.567305220843476 8.632607635249443 8.637531139053332
3395 -4.8853954044778645 2.804629797895067 -2.797698193673804
251 -0.8437195727758982 4.705681739541897 5.821844363960492
3396 -8.058367076550828 4.908867550426934 -6.268370019360481
252 -26.546060233666736 8.14529420800482 8.270548609929758
5071 20.602257879720195 -0.22406231596084475 -4.6564820860070775
3397 -16.48356837695903 3.579692013734514 3.5520461162196195
1756 18.829663380085883 -10.349112656733228 15.897802357110862
2220 21.087792266826806 29.25541581103466 23.798242930532798
5417 -3.27419963937629 0.765879500185442 -4.284952007771862
4525 9.157849484760312 -7.853815648143121 19.302574123261515
245 -3.035712911429738 -2.682074267898153 -8.163934226489523
4523 -0.762037368208545 -3.1652198512546756 4.020249174351038
246 -48.51864172879006 5.835845910689934 -6.810344303395514
2218 21.689565940762694 17.544446714514862 -10.454478636685563
2217 0.18543375219841857 -8.055453265831657 -10.02658510497059
4519 -9.896845980867024 -4.477340895498755 4.276095842817975
2216 -1.8696800111979472 5.278711095881096 -7.690791485802821
4520 -12.538017824278333 3.4110919939253757 3.865599615149137
4526 -1.0939953064693333 3.4353894392477367 -1.7194893645417861
4527 11.570282279088557 0.6276797527366199 -3.196113703541013
1141 21.57342282327631 7.041644081811402 7.87893668373942
3394 -0.3077746885334034 1.369028602850336 -22.115116595118277
868 8.839438185058105 14.045457277889948 1.9463861837271497
5068 9.750563336812052 -7.916994884203187 -12.958131755864068
1763 -2.7026478927214637 1.7339649649721236 -0.8841387810181113
1761 10.331700344128121 21.446821146632487 1.2337409930451069
1758 1.974780315444229 -28.627133569779687 7.0535041987408
1757 0.5986993819358717 1.898661387823686 -1.6857749914421833
1759 -11.118616104164445 -8.302280656734924 -26.070031917895076
4468 21.430468406898854 -13.534883811689058 -8.56601459324059
3979 -32.68913412508383 23.656239010488143 5.848925033091145
5398 24.71316662939302 -5.429912804704269 26.416742398591605
5397 -29.57039614159153 10.76177397139638 6.379966809585306
5396 4.590983994518282 -1.3097980295903102 -5.098237649117272
5248 -26.383426911810023 25.521259408881413 29.158403432184155
5249 6.416740323792997 -0.7320797307607303 -6.2126607437031165
5251 20.503573647031292 4.072502815743848 10.527945834515922
5250 6.2886779963943935 20.809698342904685 -3.323290131795351
5255 0.5703700931678147 3.1805697571550673 6.086034352880293
5252 -1.409429006125966 0.5464481589005188 -2.1439130977800493
5253 35.516525151740225 -1.341973479559293 -9.107724293054742
3672 12.419025644835374 20.233887028679042 -7.773732750979805
3670 -2.536620584590791 18.07795225150006 -16.744424333882446
3718 6.578042099510928 -10.484403668720502 -24.14607341706045
3720 18.192304687375994 -2.764510255601637 -28.49460162720717
2221 -27.80959195133629 6.4089553802156916 -8.407805014845648
412 15.88526804963997 -6.803313519149884 19.382018912717218
3669 11.267861478245964 9.984816652436331 17.238607592793425
3724 -2.089154199087794 -16.358278848349464 33.64326766237854
5418 4.534600634240466 -35.95701172762404 -4.233874415552974
2223 -14.054898587094604 2.0552075649088466 -2.736038577422412
3671 0.7228409681778106 2.880453492281997 1.6423333182294666
3668 3.904739888034476 -0.2229068659855896 4.593358080293353
3667 -0.2758536035517779 20.378132058865422 13.506854014638641
3423 -7.215647245608384 -10.310896960152927 8.780718480173519
3427 -7.609265325313162 -7.713160136876568 6.947053088455329
4143 -18.385251335805506 23.90843204972399 -1.7475968512058493
244 -31.491120267286426 9.417690797943916 -0.7056835053298334
3424 -15.960996999323848 20.643214516005713 -9.792229269085803
3723 6.546876789914495 2.842883718663513 9.97606464098098
3421 -9.710361504445524 4.431824852752818 2.6884707348829577
5408 -1.3177280828083922 2.0625174656367493 -0.3143501357130802
5403 -1.5614900512200773 -5.246079608290057 -7.233768702662019
4521 7.4679566825297865 -0.2763545510176173 7.638163858146719
4524 19.939257672268855 3.5193073017117316 2.6222546599237604
4522 6.087195616637816 -43.53250617693111 27.24869065729376
3665 0.5426896452544188 -0.9536378062154433 -11.446395729897336
3664 4.1873274868209 13.287422695825724 -17.60216308292697
3666 -29.91041995430732 -25.26737567917987 2.3447547655950975
3722 1.820490525073017 -1.6239761586933008 -1.4838867880592905
4144 15.44496075888334 23.772519018760466 15.332756791000605
2219 3.969339160342634 -3.97477215664888 -2.3403683635644708
3422 0.14192981304523655 2.5979757946457127 5.72528102135044
5405 4.174256978017771 2.2904359731738735 0.9524980160778892
5256 23.450665765413465 -15.348158192675706 -6.913187554601532
5404 17.213064188306802 -6.3589758080072825 8.16465258566834
2222 -0.09898958666558216 -1.7221833513116958 -0.23251522817832057
5402 -0.5241301288342216 5.475961328446985 -6.789880661870583
2215 -31.721965442122617 -13.266718803928217 29.681438897465757
3426 8.699862524974852 -34.56151412300441 -7.0880045856164156
3425 3.6300197100943556 5.352427302729927 -0.2809898858743063
4141 10.941866492969622 -8.051734761175888 -30.332625601162803
4146 -4.686130020580705 -2.0997480486547797 -12.173316107532928
3428 -0.22303148159031927 -3.6635388504628867 4.190546523541225
3429 24.494483582709886 40.37095713412342 3.8663261932204325
4142 1.4051399482620341 -0.585994032696437 3.7258139447508047
4145 -10.901842195391136 -1.9598398151676433 2.9375439549004185
4398 -16.561240499007752 7.647781888729315 -1.062703521877018
4147 -4.171043743642844 -18.671735085367875 -12.50228811147229
4394 1.074588265634256 -8.264291287701328 -4.599045152822136
4148 -0.19677989821486883 0.697267040319446 -1.716977694673039
4396 -2.306247505831836 -8.049648221415607 -1.4513954562618392
5151 0.7161695128804748 27.711567213393042 10.909989435603606
4399 12.158108678714626 -21.325887326438338 -16.353442232053755
4397 -3.893284119004472 0.15532861018943123 2.8594247671039157
4400 0.9569175671834362 -1.8505279929171623 1.3522602905362742
4149 -20.733236840134914 2.8182716305996958 -18.978697082282867
4401 -22.456320532697248 10.60400808909666 9.432711268617842
5156 -2.550044437147442 -6.488544309157513 -1.4968442342816752
5157 -14.044815434764226 8.869330351420631 -4.674821069856977
5153 3.678155391446352 0.24097291036929958 4.454830156539839
5150 9.598518152462798 2.576234071778983 8.975521250936136
5149 -19.302392747354617 4.125816547352204 11.852164021167628
3726 2.052154802501937 14.037223996378923 4.342630167427173
3725 3.7309850291550664 0.5965293928551101 0.9411492156620196
3113 -5.2314568323193535 -5.518947705044321 -0.872013999120577
3114 -28.216633984394864 1.8008076490550116 -15.19627305382553
6025 -9.876073048804146 2.498007197008617 -22.289886497128556
6023 4.388069704341801 -2.4165600411896495 -7.2085705658725665
6022 -1.4727028326558964 -8.760391595069402 11.138419486744477
5392 13.610416022199924 -11.18563583652437 -5.3092545508327165
5393 1.3515460217774642 -2.470703013669674 -3.595660111145758
3719 12.694614925955564 1.9444094138297725 -3.2254458355617555
3918 -25.44694749783124 -1.0478114644220329 14.330351919472822
3916 -9.23977435478949 13.86396286972537 2.163488926788325
4385 -4.833101712165752 1.1111196558411673 -0.24518920588808385
4387 1.0085318946759483 3.4286210598949514 11.376821946160993
4388 0.23080046891687342 -5.650072076309271 -3.903946378755119
4384 18.47465044924736 -9.840142902138927 1.8625213412653492
4390 7.729433182531629 23.91071354042644 -10.96771735525379
3721 4.508542918971342 13.86044426106632 16.082509296129704
3917 -8.669608891934718 -5.772636573644396 -0.9270158743295187
3919 13.485420136398849 -13.688358177514946 -2.461146827130086
5407 33.84802369808652 -25.3923268372577 7.151020422017564
4389 -14.823083097605872 6.395993142225378 9.108148056748789
5401 16.77864589466999 14.970954611085228 3.0483303787989193
4386 48.26580288746527 23.22228002052931 6.059745021904196
3382 0.0469994177638644 -9.793643455280144 -0.6217743804947747
303 10.647179626752248 -27.054668232520626 -40.855625875079916
298 -4.675218446996412 -11.9904583385568 28.021199066617037
2365 -3.2034933827922845 -12.908597492106928 -10.810604302650136
5469 -31.09855632389311 -7.37641841902522 15.543137990380279
2104 -9.507066627431639 18.93776913798138 -10.456330311037158
5949 -20.32980446875308 7.135253132096355 -18.79069279677933
5152 -31.241650453082777 -9.579117410580409 -18.313311579526893
5154 4.950670165485208 -3.487668349561354 -5.156687039749409
2362 12.012375690351774 6.4314885567828535 29.46372572605236
3922 -3.7868368471756635 22.088398935302212 13.675616586366182
5466 9.998127361282126 -4.580521987910809 -22.629377954501514
2682 -15.714345828012151 5.515153757645253 -6.901691418951748
2106 -10.255053288578234 -23.178730424154924 13.239156489470973
2102 -8.709024728568199 0.11441097525736511 1.1784759595913452
5155 -17.330991235781077 -10.12775886018226 -26.174242512185277
3108 -4.677448461590543 -0.981892772706832 0.9898334132862221
3110 1.1781086701896475 -5.638420761856351 2.4085197855760154
3112 6.794468826981661 -9.28556528518171 -17.231773936719588
1420 4.124522536126782 -0.9083304158269224 -27.436713208169493
1195 6.409340174950774 -16.184169620883864 -5.35557954347346
3111 7.058941454923176 8.656513586510036 17.204770536278133
301 -1.308001193766405 -4.810195778012342 20.555589455411077
299 -3.644552038648044 5.967937998727793 -2.7113404613548937
1192 -26.313505708000854 14.801766053535886 12.431134090124704
1193 0.32251997126124066 -1.7137510812513757 -0.3276926133457058
3777 -22.653470300588253 -9.902686093103453 -10.509224032702177
3107 -1.7866145446220758 1.428372781465243 3.1685936668989125
3109 -0.9185817595938999 -11.233143328578096 -10.02583545766385
3924 5.672710382234336 1.1539628049557975 3.1047225450765454
3923 -4.9247450098078325 -4.360145502231516 2.7140050760336023
5944 10.557112510149036 26.130875405123252 -8.34095709670458
6014 0.06869036204750768 1.027272787383156 0.5365540051683308
6016 -9.308452662303253 -4.214708388876564 15.444701459043712
6017 -3.1371152566972227 -1.2914133013160478 7.265001121989531
3778 7.529811966555859 2.037121271859238 16.474979771436992
3776 6.466345873568992 -11.577975851327272 -0.43342516166186396
5470 6.349902415366404 16.986088653604178 0.7286953123741947
5941 -4.250873536103186 -29.281986088289823 17.518263018985607
5468 3.352097551346799 -7.149003848757439 -6.884085234059567
6018 14.406113791541097 11.445675879117237 10.385946316837352
5465 -0.049427829049671045 2.1847861740258763 5.7486378141967
5943 -16.7277894954759 -16.40705993368746 20.092351520106146
3106 16.187004869456903 13.650479152412736 18.386745651478993
1415 3.94560156446611 2.916189225927044 -2.9990909677160675
1414 23.88392591472188 14.543740044449162 10.867354419241645
5947 2.9236710805805406 14.181780585784765 2.8405741008499756
5948 -4.114852722979918 1.660639864376207 0.4650814464793048
1418 0.4942372418662967 -3.919154516772083 -1.1071584919594593
5942 1.5586525966413332 4.10905531550025 1.869347618766954
3774 -9.405507298000733 8.957350447645764 1.757530656421823
5464 -33.9343474237806 7.883291115343961 -8.356725021651584
3921 -11.719835622655323 -18.8925377665086 -17.79403102638995
5644 -8.072966760783649 0.49472452319296734 -20.05916777532476
3920 -7.622546944236178 -1.2825080320553084 -2.2227892590222007
5650 21.239966727377432 -8.64154056930174 10.763181426364165
5649 13.165626571311986 1.093144047488316 15.611679846780026
5645 6.227614162096827 -0.2924490054752797 -1.2671781953557906
5648 0.581836587734714 6.432436018265133 0.20480542113969358
5946 -4.478686808232676 12.253236387856806 -20.981831229223683
5647 -3.5836277230721314 2.9882682741247204 -6.712716545011871
5646 2.1289538905230363 -1.186590424422776 2.487338979172623
5652 -34.391006162906905 12.803565599130792 -16.411847475223723
5651 3.82162577683836 6.8118989331492585 -0.9872714972544743
5945 -7.811999543980936 2.587723940568901 -1.329063764676458
1422 0.4851511938207275 -9.531720061121193 -8.841741259036352
1421 3.5933726537101878 0.6512141254511832 -0.6643731657402604
26 1.6489027450255973 -2.6819200552151843 2.9580675478009284
24 0.4312284589154541 4.67057993537756 6.484686451174961
23 4.294526335931127 -3.7961450463687387 -1.2784147920142965
19 -0.08441066596451903 3.3059399184500435 -32.24429917772689
20 -1.8962705535778177 0.06154837743333425 -2.2998523143231533
22 -15.55717192711435 -11.810752422755689 6.462588542300405
21 -24.260577808381946 9.879017875055181 14.392621205915095
25 30.05997326256731 1.7692264981766614 8.43091793803935
1419 -13.318608979878086 -11.602601712437282 -10.208423108153715
3773 0.40718785373136585 -5.271188710677304 9.888047404133905
27 -9.523326122623102 2.1882864148515964 0.25573794344071865
4869 -11.677690660938946 9.967050102862029 7.181639913248557
6173 -3.0976447539201417 0.727692893684093 -1.0985787833988547
1417 5.24699186265917 1.0997961767227433 -21.172350906759206
1431 -28.411144187236815 -38.29455904763079 -11.406206881566499
6013 -7.691828936527054 8.865324334047436 -13.745491290159931
2103 6.7050529751477725 -15.497396523505268 -9.206670029619088
1430 -1.189522380946388 4.105688916514625 -0.9856403121013565
1428 -5.466143519412032 -6.9277179805515 15.836324040616526
4868 -0.2750146555111624 3.340185509486967 1.2262746209169988
1426 13.330254294136852 0.34679788721741867 17.64898282204524
1424 2.008453130298919 -8.886552633811007 2.287647256592691
1602 5.413758880981795 12.2211988601942 7.033357979764751
1427 1.4432803703727766 0.07962398390956898 0.6262821584695514
1423 30.28391112824643 10.631363246575729 -5.46406184777623
3186 -0.6359375259366802 -14.78295820327994 -15.82659296538482
6015 -7.073799885869792 -28.005928300402072 24.55333561745124
4866 -5.193567109263615 7.266618974025285 -9.491335170804337
4865 -1.926858158438807 7.617369294486093 -2.0933054118086596
4861 27.545388719864466 -2.8954818418675377 39.72243600704117
1425 11.108648905501836 -15.775446483624203 8.579590885265523
6169 3.7242097526809466 10.77175481049053 11.411374698069794
3802 11.538748981781392 -6.638184130128369 17.199228774289377
2367 -4.1446487386695665 34.34016817563065 8.195489195372524
4562 -1.413520729621435 -0.29264296775875054 2.372781829107608
4563 -35.135248158095 15.873775451282386 13.022632980246472
3800 -7.509821383349059 -1.1183536728225716 1.298416096520749
5462 12.563260116798924 3.012504470372683 -7.779232493108891
333 2.366222578248979 -40.344948556994346 -13.636360993668685
5460 7.103059722216718 0.9408488253206831 3.2351494060634822
2135 0.5887909160681801 -6.508850014164963 -6.338724724440765
2137 6.400663420135955 -4.6203193336138595 1.788249046326493
2134 -7.542138463280877 15.230707026218186 -9.608980612176222
5326 14.182126728986391 26.11484236375295 0.4257691663804305
295 7.458459965443228 7.6140494018946665 -9.453039724431896
294 -23.887528745962392 -0.8649524364387068 -32.49023228558993
3308 -4.743831761605857 -6.010074580495472 5.974733713422434
3310 -10.166584480109846 12.017893839825426 -23.176136399860795
3312 -3.5342847972666376 22.07012957943669 9.084971895962182
1139 -5.26839462382511 -2.8279373809752038 3.21737732335731
4053 -5.900905010371235 -28.709709245052704 -4.127902703363905
4058 -2.926987603140668 2.380897370110699 4.770891852096123
3311 5.40792122765733 -0.19498490815415348 -4.642177319647658
5455 -0.09488305014145225 22.441346586399842 -22.613610208694492
5459 6.129502347398212 3.434442060648078 -4.361520900565955
5457 -27.12553720627999 9.810044221867361 0.23877406386739924
5458 -6.434808347628331 -0.6428856029896413 19.370637561305006
5456 -1.7181353162531698 -3.146036966982993 -0.3530858323942949
2138 -3.8127379915505775 0.18234311201381953 1.5583808275442428
2140 -11.780990011648885 10.687325652699219 -12.710408102683218
2141 -4.41552014368364 -2.983625403475401 -6.595679374364609
2142 3.121132398185115 -3.4959329927010283 1.908834486407387
1137 -2.2476410982523376 -2.9529535504640116 -19.16452432495436
4052 11.427187441527858 -0.7147780098645473 0.8787544885394406
4051 -25.782231940205342 -1.3649958298498253 -12.949569231395465
4059 -10.745675901478203 39.10097397788684 -17.34242249540214
1142 7.061140197076062 -0.42117905530201305 -3.7625546294237395
4054 -4.824603015654014 -4.297308162810268 5.152812323029577
5322 20.10256678119216 -19.4204472312396 15.28436285683912
5325 7.693344238464578 -4.500371467302692 19.22192328181773
5320 17.144599945070002 -6.976277154050003 -7.889227658495561
3307 -24.52112118126822 -28.100217690740674 15.927341276366137
5323 33.21591280608475 16.80070883788228 5.269275293931525
3462 -2.6741094328810964 -26.781562201464066 -30.137709288115076
2542 -23.15979476229838 17.904761626043232 11.272600424954282
2545 5.054063169689563 -8.499640222085791 -15.782922585830665
3457 21.648446239524336 15.903109721827668 1.487165385670379
2539 2.409477566030638 18.200490345221265 -19.442934296013842
2541 6.842052151934224 -25.23711466305656 -0.27153396131481433
2540 -0.46616359718216954 2.74332547941361 -0.176241889203071
3458 0.6245130637866618 -2.025384325158406 8.922080863731331
3460 -12.384173032551358 -12.86939046928879 25.93745294422457
6258 7.996406054065961 20.786252656390264 21.508102423527152
6259 -17.782780675720083 -3.51877331032444 3.8873098828174903
6257 5.354322266244348 3.5619853709845963 -1.6560316044810737
6256 -2.8794791319920483 0.3619197119719189 5.342301679964618
6262 19.03502955999977 8.072055669595178 16.655025955411755
6261 16.447072120101907 6.427950103646322 4.539830488138503
6260 3.073907551767878 -0.30143618914542414 -5.127176566429963
6263 5.547887558761938 -0.00872574004751523 2.3987452523465933
3461 2.3674267360622663 -2.5467755210492826 0.17912588808541605
5324 0.8592548417785851 -6.588402571011888 6.425895582303519
5327 -2.674133653889639 -2.526277235765986 4.487715363387047
5321 8.772085022052206 -6.874130780554587 -7.229893156663259
3051 14.373376474334696 -23.752991302746988 3.7822250619933886
3050 -1.2739670566335592 -1.9347165661547516 4.843495082604378
5328 -36.96027135547705 -2.39911829582144 13.827533687343253
2915 3.3815017355604517 0.1493336419658921 5.667578675128203
2916 -4.78209469119625 9.976295881126102 0.8093180809805824
1332 -17.319171412699202 5.921310578637773 -8.655910643609003
1328 -2.8257799574993845 -1.074664521061918 4.355831053088221
1331 1.0154498040836761 10.420182831844249 2.152471392991439
3047 -1.648151930462824 -0.9869114146617793 0.9503086937143721
3049 -20.42519495792941 -0.33347731450118906 16.92045991663223
2547 3.5698248317609274 -22.4695869795117 -2.7535004293326732
6264 -21.18237592896723 10.108787813622556 0.451454049510658
2543 3.10779474435727 -0.7240804927762996 -5.845225479359066
2546 1.7386676310794025 0.5666440976476637 1.3717037401968921
2544 11.771780527825781 10.342914965314959 0.0462570132636765
3464 6.277486779516028 -0.03284682075754491 0.667669916241873
3463 -10.863755070787846 1.2951783866127982 -1.9911480473891225
3048 9.531678768915977 -28.300103854697323 3.7125115256194943
3044 -7.247194102901503 0.9927575846205237 1.6700903362173807
5148 9.30974671052966 15.22889583274195 8.622412045673949
1329 -2.830666055044157 -7.714820493260502 -15.134839652986999
3459 -23.059289094558757 3.8813999378778723 -21.559734520023163
3465 -16.901918533971003 8.04690032213193 18.871019531204094
3045 3.0034736902978696 -3.433501631584636 -0.019918487341007048
1330 19.779736787501335 -4.236450643757505 6.443552278490111
618 -13.167193619418684 8.573259509948443 18.725357284650304
296 -3.0655907403314844 1.290658349052527 -0.11463490681588745
293 -10.288245975901063 -5.8218450280648755 -1.7609427196853056
5142 20.81440758053367 2.934131360926477 -14.33496732208938
1140 31.90788994240528 -10.018200414989204 15.101061795379781
1556 3.664185900587531 -1.9028984546277836 -7.479882076774296
5145 26.939657310788046 8.48412031473815 26.682811385276196
1557 7.341936414043358 -8.959965362677824 0.06242904183038669
292 -21.011242051810655 12.499970490851124 16.4631853588612
290 0.06886803954962849 5.812396217407507 -2.5277401824041092
291 -1.918558421697251 24.22214946592913 30.115460770628935
738 -1.7177460142149465 1.4425381511544633 39.563418374708306
2643 18.268302959599975 15.31863948463573 -12.779261860199336
5371 8.21953548640987 3.127123175793922 29.76367422165886
2806 -9.869795305700414 -0.9805366726555144 -2.437072672044774
870 15.798369588841586 20.98853950775092 47.480245254232074
5147 2.3781753856962995 0.38442733420853903 -4.281561986881219
5140 -9.646114172958166 3.6072711767124845 3.640764022912559
5141 -2.392460091762571 2.615771503291235 0.7189046230461965
1555 -5.4695867133420855 24.788240072172872 2.3637471676829076
2804 -2.3612101172025315 4.544083287361046 6.885622386422627
4305 -19.336817087859803 -24.38738900383302 10.56215799517946
867 -20.31765306749931 6.631448844267924 -1.982972528495548
1848 1.7347315635048293 27.409083480483083 16.086335847661495
5146 -17.092402757198634 6.9794701370893915 6.38558579046698
5144 -1.527189903052686 -1.902348254552817 -0.8934268520790022
1143 -2.059546303607596 -2.029869022038164 36.83329642302367
1554 -11.91370217415082 23.459026527474148 -15.857077613316642
2805 -17.25462169934601 -5.855704571882887 19.319085418596842
4306 1.566343993272561 -1.039837488221739 5.88518637411674
2807 -4.2554638638803866 -6.247554279119776 -0.18217928357514482
2384 3.8348582377534286 -3.972747209618258 -4.608301609805021
866 -0.6179899586459477 6.213999849767622 -1.1328065319755751
865 -37.573871110589245 8.477501197857048 16.869602532605374
869 -3.002559367516206 -5.625835879494773 0.6566864458716888
5143 9.712755046316136 -16.443078605132467 19.199081053660315
1615 -17.498655358477233 17.503146159732957 -14.543482527302647
1614 -9.565503503918714 -4.186424550473376 16.38987648960547
1613 -0.462712577293051 -1.023329983442609 -0.6800761648071673
6238 -1.6318971940559783 -8.41858627651518 -8.335558876598403
6241 11.072974240130247 -14.505541611237092 5.118384171214399
4310 -1.4714140637203978 0.6722979110241292 1.1146083807185454
4304 -0.08606065627587729 -6.975126137711863 11.531763872698717
871 -1.9641728585130707 24.109544631709234 33.59107588717171
2771 -1.0907341418576308 4.107918242823731 1.3076118425905325
2769 -11.577801781588281 -16.046742631344824 -24.253281554140276
1620 -6.909678335085445 2.3659940153486008 18.268412969199794
1612 19.766471527487187 3.2680745165342415 -15.544878080300796
1619 -10.30502003691004 -3.094379088507074 11.410649590295638
1618 34.12559776000681 -12.635083619269327 -11.469127806475113
6240 17.400226162142246 -3.888407389850147 6.351830294177896
2766 -16.676004297512648 -1.201443398934517 -14.12932025613479
6243 28.210647601307336 -8.321895393013957 -7.063141864687537
1617 34.699041984050126 5.764021252649555 16.743787430564442
1616 -9.32195702411989 -0.0831356541052872 -12.684115361419849
2770 -3.489117916831671 25.743878027910963 -28.902960473785054
2768 1.8343854300643914 -0.056838451706835075 -0.11761961491961888
6242 -2.128758189639504 4.700535398515978 2.843972143367935
6244 -10.080620260439446 4.011311305792039 -1.4860952619577055
6246 3.08873867506146 35.962841558525824 -0.2913230399947713
6245 1.53249071660946 3.2826054455033153 2.9249472232949474
4729 -9.69547081665251 -13.63433830290461 12.240718037987476
4732 -18.51634530965352 -8.570711070668658 -15.216676290793387
4730 -5.15397282565855 -0.6140285133157893 -2.277884011827884
4734 3.243624272986328 29.892733095956057 8.451746467372807
4733 -6.667510405645288 -2.8823862766312596 -1.0537974176850928
4727 10.483676339936974 -8.870090398899148 -2.8768205604277477
4726 -4.731392506865543 -15.978651712131214 -1.2661348330273061
4728 2.4300152697748563 -10.335556575804612 15.267965419003204
4311 -7.635954813577979 -13.904302127901445 -15.046496677472959
5548 -19.377347155485804 3.3530952462927957 -3.6510922264978474
5547 -2.0796006444558186 7.688513039174646 -26.46248672042144
5546 -0.5607110143420709 0.37423838846967783 0.7421150928739785
6239 -5.63351848071818 3.785093062516702 -1.8657837439602274
2808 0.991261988239815 -13.087754067286694 -26.18515652333013
692 -2.9492821062467858 -2.773699217117798 -3.2973163556813154
5545 -28.889510135298412 14.556714873227618 -11.40825614517319
693 -14.953829989437255 20.52957174423895 -8.866711449804402
5550 5.105974537044493 17.496611509082456 4.044150157886977
5549 2.1894104164082533 3.839725121622248 -1.9465508685291668
5551 -18.196347576362985 -19.66454775294721 -4.1409724681429925
691 14.373392670425801 25.03035133735347 -17.74583139895337
5552 -0.230100171318336 -4.492072573407335 3.3422621112637074
690 4.295855416432302 -1.2791085753787854 12.587465286870302
689 -12.14509654485341 -2.001673819075733 -3.1431870642310646
872 -1.8319720026801682 5.316245673505675 -3.650390661746821
2503 0.2726341141098505 2.835007996698201 8.300556130712492
1409 -7.350434527190364 4.203550711364459 4.288692701369436
2506 -7.47526332249524 9.001340904157622 12.958501961831656
207 14.313919777358024 17.049251599033404 21.004247867399556
206 -0.34165633201604895 2.296915651357983 0.07038280975363541
1408 -15.81870736495229 -11.828163112312955 0.9235650203175473
1411 16.918160959247448 -4.680761484057187 0.6051378222700265
873 -12.611238481363063 12.631911652268276 2.377335688596851
687 -13.336140846345407 23.06740712589466 14.837043670485187
685 -10.320287519235578 13.068137826402328 -11.02588802953679
686 -1.466408244118607 4.57831857875025 0.1564225823105938
688 -22.859456831164234 -15.188058759915116 25.978442422770048
1852 -37.13089775266957 3.986399582631171 -6.937454556771265
1850 -1.727443741151926 0.8984230826353814 -0.777219493400526
4473 8.17991614880315 5.5886515479265215 4.818957498972845
2505 10.960764627541963 12.328350205639675 20.04626926249334
2504 -2.2887914765695156 2.999980617667734 -1.1238025020186069
205 16.966482015061025 -23.625748367943714 -9.418355877355147
2507 3.929192571854117 -3.764675906517785 3.065488838802499
2509 -17.351094151685366 -13.724431918193737 3.4486524534601934
1846 -9.45889794690463 -8.586677980306469 -5.30750247460027
1847 -2.9952446427609307 1.5766607582884355 1.661058554066851
1849 28.738061949775318 10.823237264879328 -18.464490826992577
1410 38.154674452626125 -10.70639304764261 -2.7277493325304354
2508 -7.918456005664251 -10.032849868753027 -9.123193645478118
1406 -8.029687326613772 1.9797203744788463 -2.716241981906639
1407 -32.342751081735656 -1.7478707104228288 -1.5527217212376385
2510 -0.35048921760589735 2.078205725786192 -1.194200852253799
4472 1.6970972279316168 4.585515004476858 1.1288941536844908
1854 -10.68638749526794 29.229037748321105 18.364579100407564
85 32.85022529719587 -6.508736412033358 -1.006792744229589
2673 -33.960115444306474 13.996576883720676 -3.382804900844306
2793 -7.495134529830041 -10.593860556996257 7.26534185011958
3950 4.389308585076944 2.82801095403223 0.657705264979434
3943 4.04909443366929 -20.34689811590765 -6.860826153195277
4597 2.938652848750312 -15.315721727289818 12.125149318989344
4592 -0.78156809699524 -0.11726650878185851 -10.868476263549095
6024 2.618121322744889 -4.595248779437149 -15.454405888415481
5395 -4.27377333497188 15.543110271039195 12.181920309958837
4391 -3.4454636745689045 9.576296458895406 3.8111708266898283
4392 -19.99248493505224 -6.996498755577721 3.268211361484443
2733 -12.869328206665312 1.3093036582406954 -14.484888300701705
3951 33.109635003024536 -18.887586861947963 -24.738589006833205
3945 16.704715280226193 -6.4945302200367925 17.99669948781658
5394 4.260434861624484 21.26981850552352 -8.613450142603766
204 15.836075357084479 6.171042626401291 -0.14455694282421552
3949 -6.600086480587771 4.2776996141062265 13.702262773961342
3947 0.7260702650625362 5.818072134847403 5.527343771679284
4594 32.279481805333575 5.449180583864811 4.448940507374501
5518 -7.954968494942543 -10.223684363291882 -0.050869126309108274
2982 -13.67871682594246 -19.0229158881975 -15.073479704149843
5520 -8.377817339415902 -33.3916803377463 -4.039138527968931
5519 -5.393966098166707 1.938496339874336 8.220779509069704
3948 -5.8755703937623585 -6.673982280412165 -16.101420831482354
4591 -0.49343612489370337 -19.079999786737908 -18.975335607052585
2985 -1.7596795978319546 -12.791761374557975 0.8944722065274158
3944 -3.9824914008048076 -3.2999997150512854 0.8215458142179244
3808 -11.575963016753489 6.292174008678619 12.642777574151392
3811 12.933539246218603 5.544226097494586 -18.637584940142872
3809 8.215621838724422 -6.458080371397111 0.5378698808807917
2980 0.10080283493076725 -4.228186884295407 -1.8310734185086965
2511 -3.019904529837524 3.370788414796967 6.2795925785963655
202 13.755611524923802 -1.9646129309548193 9.25503710656838
5524 -1.3365277063778107 -5.917035872160701 -28.473920528445
5522 -0.2691082525147011 4.607204041527657 4.130308259224203
5525 5.5329663098312 -4.05431132582811 -0.97632457747057
5523 8.770756240785756 9.684980077744704 -32.850785763633326
3946 -27.027890922807575 -1.9610135915768556 -17.200783672605983
448 4.408264554864797 13.594698950673882 13.533885070617188
3816 -2.9355805382244884 7.385984041758979 3.9689827377215723
449 -5.273387307088358 7.809826644311449 -1.9107324337746128
447 -21.194327015595675 2.444669546419796 3.9709782474042123
446 0.12396613808533338 0.9205162860633768 4.557866115272842
450 25.28262128489585 10.147024284525209 8.039129549612959
3813 11.639267658728699 8.685531221399994 8.65044536163414
3815 0.013091752174350194 -1.6764582567616624 -0.5214629323526331
3812 2.190016510763969 1.4171321221119006 -3.71607145411066
3814 -28.955199631438372 14.08928143279322 36.659852782526556
5521 -6.189104584448346 -23.318220230867244 4.379947725081243
6007 -25.47272911842324 -9.926264325828598 1.6926029362553938
6004 12.018251710091402 -5.800482306948692 -21.3060084964004
6006 -29.42674305378118 -13.429810855562799 22.425119842412087
442 -27.17635356971952 -4.637330411629117 4.272249631032632
444 -1.7740144843754004 -1.3352172715824826 -38.42776753059787
443 -6.349859833031421 -2.6186592416672343 -0.4755668311594032
6009 -15.151414888671393 16.12307396212163 13.502080947031576
6005 1.6603742122017235 -2.84728737843298 1.3318266758886323
6008 -3.5457900833055285 3.8848162920917266 0.4326851753364599
6010 -18.25569096806577 3.2561671576436306 -16.89947213931859
6011 -6.120954875501824 -0.4000195089169929 1.1834447300956943
6012 8.488908666896783 11.606121722751562 -14.822862379926702
5526 -1.5593941012304606 -6.411124535234314 14.606523181090243
3878 4.170182378264262 -3.6778243869872 6.630453161732776
3879 14.46965657848708 5.015367736798971 -3.332954086095968
3875 -4.290566808327546 -12.725877305912286 8.708194851591454
3877 7.5843652725088315 17.520005519493502 18.01674275496912
3876 10.467009366435615 -13.22024739031902 3.6033393914092895
2987 5.353274159244785 1.6560866599060033 5.329317537919912
2983 2.993168315576386 0.0428550550998745 19.536581443745956
2981 -4.530233121436985 -1.0666498316878241 -0.023213534261881445
2986 40.299432516709686 16.696247263653945 4.788175532804223
2984 -1.0501553036276239 -0.42571904164815394 -5.604464355325825
2988 -16.42592073820169 0.15168238580162538 4.605767505109897
203 -3.761394288908564 1.9507502657600917 -11.362959101077216
445 -6.964742152942311 6.144160334865524 2.781803403656288
1897 -23.918862239625515 5.8207462523086395 11.891035943950303
4419 5.620478788670047 4.7862432541984585 -6.561365581194014
200 1.2012933809314421 -1.812926195232492 0.0023464131072207686
199 -13.897889404571128 2.6312345997722058 -16.915731088124883
201 6.741140041348438 37.166878772565994 -12.164498686293628
3872 -6.585648568346199 -3.8774572579754527 6.8284263702227745
3871 1.3409092188999234 15.619851226006539 21.227771924127712
1895 5.366502867480689 -1.26714898650786 0.6651132085116199
1898 2.494933895446305 -2.1914114434046237 4.987456907772421
3874 6.3824035665116865 12.497634113688008 -8.41451661999786
3873 0.8303419001342439 -5.37860398625673 -11.095011923737037
5968 0.8525488015105059 7.470588354200228 0.9625937279769777
5971 13.299289791018127 -19.881026495594 -11.345426101415418
3501 8.355459670267432 3.661770041113057 -0.05239643417390951
1868 0.9555095309567978 -5.714952559577568 7.3715239630427
1870 13.06474686375418 -6.715132929808075 -18.25032895156879
1892 0.4546948031967983 -11.674068838997576 -2.2320155892523923
1894 -13.470080915905381 -3.6514568034672092 -9.678905047437631
2680 15.486155275051802 -4.967719706634629 1.6101645475276736
3801 -4.130635801260546 4.943427297829751 -10.098201349777177
2366 1.5338047330807942 0.28252926651042365 3.1364383959249498
2796 23.051734424328576 -5.55226726420355 42.081801711842246
2798 -2.035980257257772 2.873272539668903 -5.00219554014162
2795 1.8119689842124158 2.1668808478743364 2.313412860924455
2791 0.5333601625405865 -31.87870637089436 26.5275958973138
2792 -12.642011691487577 -1.968153608713051 8.733803362848349
2797 -7.343109613968861 1.5319721025196884 11.81513358900253
3262 -19.20332023748818 2.381617437708206 -35.28433791298681
6174 -1.555177062247982 23.454641325046907 -0.5058233893597714
5670 11.99045438652737 19.957012222558788 -31.985799860081926
1921 -11.510234597743997 -0.9948488297266986 27.837076678307305
3046 -14.097065412490345 -12.330916876155955 -0.2528205551602442
2912 -10.335480712912444 1.714285393592485 -0.3129272606731788
2913 -10.310884755581373 -26.21936214062586 5.100257444871797
2914 -3.4174798049372 10.686626466486754 3.095637160822477
1920 9.570596906823685 -12.623093528910491 -8.275238766332564
297 8.247518557786133 -6.432218352209097 9.922004281215978
3500 -6.4842538533797605 4.3265389907144725 0.7627760645777001
1896 -1.3321848916277919 -39.334618785601656 15.833758773208105
2799 29.344377491004703 -8.065861288159013 -2.7506601826308743
3132 -12.96358265102334 19.865724605985378 0.4568424607985441
3131 -2.3303973489582375 -1.1054207517903039 -0.8704648343622426
1361 3.701648940868049 12.957845882644044 5.698277499186959
1363 19.9029322040059 -10.77618732802882 18.692479650054867
3260 -3.883857018845028 0.6755219918258373 -7.9245922257658155
1360 8.611708570208055 14.406793958059076 11.661794932289617
3261 -4.0988711763065675 24.276220669518263 1.4221474922932889
4867 -4.538756359719575 3.9914147359117935 5.709866308957265
3043 9.142812126163188 21.44904296860465 11.471053252795842
5970 -2.8182157460986725 -15.274650329557346 19.419599986535957
2289 24.901676298745752 0.3838344758182681 11.922657021977548
3130 2.036914007130786 3.1510017284988394 -10.699758755512583
1919 -5.616692026422354 5.182058773811109 -3.9790759168312047
1918 27.41600403378342 -23.356229356545807 27.20575828773759
289 -15.877947775881331 1.036762497841006 -7.676569412840004
5969 2.2969792071103123 -1.6879447115003499 -1.9565401174201502
1364 -6.9925083907816505 -0.4401464179440828 -0.6740673532068762
3129 -5.839283603155729 3.2115793815619593 5.180667383135028
3266 -4.832194501769323 9.614158577730437 -2.2175375045865082
3267 4.439592706648475 0.7488679440939031 -6.953508078277658
1365 4.918757399911817 -15.774229409521753 28.5254014891861
3128 -3.953163232897348 1.7528120959257496 -2.119858266507999
5669 0.2206019321365129 -2.3310446452114495 5.567653086336949
3126 -3.1101467954314823 25.50621920766967 -21.28736219523541
3125 -3.1572880119974416 7.235683096274684 1.8645535386480567
5668 -9.082467295532552 -40.73249485394263 3.967477245755662
5666 -2.403341442927185 8.49254480494453 5.400032000003313
5667 -21.758089143573468 -10.531165767234526 -8.293796437884604
5973 -9.724783166105848 -12.774191975113231 -2.367563799566934
5974 10.845594697286412 5.302275494543078 -10.699376628780026
5662 -2.72478844591172 -14.633422899992464 24.236074631953073
5665 -28.171197450609352 -4.751674496725095 11.253452048184291
5674 -12.039486549374823 12.406054888430015 1.3712909025584845
3124 -6.364854157806496 -22.807602827925695 -2.196758197287622
2911 6.286498136312774 2.8375893480089904 -2.574256187717527
2909 0.017463781786759988 -2.935831135665876 -1.217275478900723
2908 -9.236981559995654 12.011673859021915 10.281533985651903
5679 -14.71249684949915 26.03852455461652 -14.395274667876635
3127 10.924141459479316 -6.518062703473213 -0.4527101196006289
5972 -8.118019444214971 -3.137922039811198 -1.2838348437411196
4863 2.08078505311951 3.05287898428663 29.473544555748816
4864 4.51077490740395 -14.617083378171786 -5.5009682669672575
4862 1.8532441307774723 4.00643376247819 -2.6489953050824875
2557 1.518991576023385 -8.464017444026274 -7.985257761302034
5663 4.113029393426389 -4.938066076444923 -5.0002210880187805
1367 -0.38045175150016625 -1.167149985980926 -3.28837366003395
2910 -5.55868805696412 -8.892048008079904 -13.98213985832354
1368 -27.760219188611067 -0.09947090572762383 9.037982084133741
1899 -19.747660242613573 9.550987982221864 -1.1794325901244278
2560 -10.357227331069682 34.66525496414412 -5.260695525324297
5335 25.77577847637519 19.75960605654677 -1.004219064976899
2559 -10.34886571993302 -27.695482534048324 1.1832980118315706
5336 -4.706660369309003 0.12625156318071265 4.409977679474731
5337 39.525468340658435 24.750603704220357 -5.056612935190161
2563 1.1137967119819046 -17.373872784961076 -1.583576595423908
2562 15.076471372682951 -12.848243026364168 -5.547098411858003
2558 -5.4622436690837 0.5512197649861346 -1.3798549956668615
2564 -7.330493199627243 -6.346067032848625 0.14774353942583163
5975 3.404478108946403 2.7929612532466535 -2.495852211692369
2565 -13.652095319276382 -1.0240678077258223 -4.277639384903262
5976 29.550041108106797 2.5928625023947323 5.613628159810679
2561 0.34757064338989824 -1.0559926575032295 1.0755245435814398
4919 -2.8199006476935726 2.578481148514302 10.80989592199486
5333 2.618899497127068 5.041860836830278 2.8944178536087435
4922 3.6614843563197264 -2.8327343548782618 1.273599944126181
4921 24.27725035312222 18.875815998467996 -1.8063727557682547
4916 -1.8137590847756422 3.1189012580783397 -5.918772129224668
4915 -18.75985078807327 -10.290474971525038 6.213691203830747
4918 14.610820515780715 -11.890423224813057 8.244335689899502
4920 -0.8715119509064068 -20.42747796556184 -24.22750543020841
4917 2.7898252421318284 -6.735701278114673 6.3502441129043286
4923 -6.895035115230014 8.140064376817593 0.44950662217249326
5664 -7.078726160508403 -16.636176704503686 2.5928149823313
5331 14.031451205472653 7.487117977760983 41.15627098670783
5334 7.971542027071045 15.251419864428234 -27.666120760615993
5330 3.6055938238805436 3.2531153891352407 -4.226179040481514
5329 -5.232995450489256 2.779843021654326 -3.747881079868557
3579 21.921876695801817 -3.9781175531515744 -3.1712971796445597
3576 -1.7028576945732514 -4.913257256988937 -16.295888848421406
3575 -3.435431738658876 -1.774914132905387 -2.7278208945295583
3578 0.14860484085373227 -7.759033961039511 2.4870306917613756
5332 13.84219913597246 6.291714632789589 12.796902819311516
3581 -0.15137318223371532 0.487125996441203 0.26133441856748457
3580 -10.309685061200016 5.904688958732975 6.804311084972056
5773 6.90755531271223 -19.325430941140816 -7.992607850387057
328 7.400146769487889 36.06988240571123 12.25382878076169
326 -4.116580687489357 3.650649194188799 0.33932417775785945
2973 -8.949634182454133 26.035116542891515 -12.387870539703302
2974 12.32612424328899 7.179410320334729 -7.120305182064775
5775 7.7877986570958155 16.038684591184136 -16.772131169436253
850 -10.507423681357794 -2.061290756580828 1.7029295675298084
853 12.869870789990935 1.3022859730360292 -27.541391253067204
851 1.4373517383183354 -1.7651536660654343 -5.1246933446630685
849 5.770552199794922 -31.60740251868066 -7.43335532059846
848 -2.549769700211823 0.269534094381594 -5.23150498458566
331 -1.3052785111310188 21.712684107209633 -1.9875085252597213
490 -1.6526264750017203 3.434696797642241 -0.5835840225492729
489 -1.7966861995816044 -11.987897982897094 17.559536685164044
488 -5.405988153054424 3.8771602591642553 -2.1137016285978802
487 19.68920818515396 28.7089826042342 8.420442244991195
4945 -0.05915272614976458 -27.559381299632523 -8.636980121666188
4942 -3.3012717348953062 -4.480001678123509 1.702425754001249
400 9.5382746436469 -14.541897043505664 -10.375517536137115
327 -2.6185119236504533 -17.338762417790257 -25.82626154437276
852 3.6657689368928104 2.9286301661589436 -33.63937994542272
2080 -5.079953847381256 -6.497779342802763 7.426257740207217
2082 -25.90071886281242 -33.38297445574809 19.57957202732764
2083 3.0298146279792078 -2.5476234325091065 9.82179734333837
5088 6.28826722087514 16.00425411089549 4.956546745161688
5086 0.09388445985420496 8.330798681440758 -19.131416500798416
5087 0.8177255564404682 -0.1967123659076296 5.21437713576218
5091 14.559192647481725 4.525668498785367 19.025455272241214
5089 -9.328656289328416 -0.7737330809647261 11.191114347483785
5092 -9.856855739518185 -25.838294752126703 0.40048115372622106
3389 -4.468965240238283 0.32204107658649556 1.8866081261643226
5090 -0.25152519302683124 -0.04694229896612473 4.380358888795541
5093 4.517523924678688 4.776111384177607 -3.9901265876538394
404 -2.1004150390843237 1.877732488437979 -4.863422462500785
3392 3.4954267364431746 -1.2798062522626708 0.862756865665358
2086 17.39702344607184 3.337825980819907 -3.819682092819886
3123 -1.660385214505477 -2.0811433132416104 -14.95164344209385
3122 -4.092784939221096 -3.947114150989436 -0.6698260501058767
2081 -0.04865353018035714 -2.2031551832081844 6.610406051702633
3348 12.649224294541712 -22.36764904227977 20.879276087834445
3341 0.3879039040931686 3.240832273015564 12.78125818430731
2085 -20.183680932526062 -49.87531002527428 -11.15940398331615
2084 0.041173830925188094 1.5363269661570333 0.2223219277691635
3347 -7.312387623646115 -4.865867697419098 3.2131313539956565
2979 -11.777023945753632 -9.863220977552048 19.742639501686202
2087 1.9196895515364953 -1.3153636571993566 -2.963652004313396
2088 5.669913136835616 -6.05785575134293 -6.78350230593095
3343 3.0282375337464194 9.033811860336373 2.5432911170659125
3119 0.5136150583471317 4.20489913599981 1.1521224580608085
3120 5.712224885709306 -17.7917247885155 15.599760811888222
3344 9.936327543115237 -4.659950135529399 6.645622975818743
2978 -2.8631924693890967 0.26375069917430877 3.314780853835284
3121 -22.24958518106262 -1.7327880577824077 -38.80028685594621
3345 4.733516265056031 30.281535106076436 20.950044430820796
3346 -7.768738764246837 -10.991765394547771 8.91452386209796
3118 -7.881202655407464 -10.504191991531872 3.3726088045618385
4383 16.26037328186498 -2.5748155049980874 -13.69962695680289
3116 3.797961660953649 -1.7250229064490918 -0.09596311952669104
139 -6.565572672983077 -8.326013388679755 8.592952568707386
3342 3.0266006629878457 26.175347253038712 25.46955747857706
4382 -10.170310299763687 -1.113762388979006 -12.113549003512393
3117 14.873847394463185 -2.1215793230472237 -0.4518005290741057
2975 4.512635354466476 -1.9911433628599893 -2.788147410850513
138 7.176265948204957 -23.055635059691117 -1.1941442624827896
137 1.1382593618918035 4.49592720292054 -1.7821967485317092
2972 -3.2741695771752917 4.634907945676456 4.146090292787314
2977 3.648238307279414 14.94336221665167 11.425272312658736
6219 -7.099754629408114 26.70331273691434 -22.96270419040088
144 -1.365773030920736 8.232710177686979 15.549170200133949
136 14.387257901178723 -6.151600029537526 39.27159439925133
143 7.4078982145663606 -4.677150591687168 0.8135292099324627
3393 -27.68158571381471 13.44587425774824 0.7687270013716291
4381 -6.339897565529651 -18.97491305304947 -26.730181380884975
4379 -4.514377846197548 -4.9138066503627345 -0.12286678435502128
2971 8.817015733554005 -22.612894053161604 -0.1486554151497991
2778 -8.386622397300105 -24.866660455521064 6.952639436787886
3115 -11.685344582770034 4.410484158285265 35.3350569420443
3391 -37.621655297873694 -6.8497829262369425 -12.620921996212196
2777 0.03635810207004735 -1.0289840869587425 4.777579073635228
2773 13.652250276164986 3.5685812353368576 3.39415376104132
2779 39.567563694010964 -8.252517931419758 26.56771882701278
2774 2.0338738120106754 4.326276955154505 -2.9138904309041376
2775 -11.167666834065933 -2.214379724815756 20.462083676368078
4380 4.40945614894107 -2.8403107013207554 -3.0360719202804582
3609 -6.341723636826422 6.510634148542737 7.404471512925035
847 -22.20974331781399 -45.23327688983209 37.47499167467874
6218 -3.2705271664861337 -2.721974804447998 -6.3426464360020525
3390 -42.65420612309308 -10.303746955649757 2.0160902418751734
142 -16.06253309297481 -1.4706540059498705 23.892186514096593
140 0.9199884744659645 -1.0754354124050072 0.5187066310006079
2358 -24.534338377371405 8.500638425573374 -14.413557764320803
2355 0.5824562462750734 -7.95449943880769 -11.70043678439058
3601 24.71627915368675 23.074219913105928 -15.005234563602688
405 2.6382151432810863 -30.30915135587017 26.06109105798392
2780 4.933957389231162 10.44334565203349 0.061703355307429666
2776 13.28703222651276 9.566189781632401 -14.856260601526722
361 3.7693715402255137 1.4016428869481403 7.598364918629447
3430 -2.359445161934176 -10.628530620949942 -11.099324241184087
2574 -2.5603614534818093 -7.451163584158289 8.246045564979266
1806 8.978487434665412 9.703610324320655 2.1423903036463345
3076 -4.398603446623651 5.012695414297396 8.859908287724354
175 -3.3989249725172668 -14.790985636090072 16.31853105861501
4376 5.374393610082566 7.02309242892724 6.236149873360044
4377 15.087013585074672 -33.44493210547822 -3.146373359458857
178 5.396525384148139 4.766952071812034 -10.399187675717455
177 -11.868341131415223 -21.134009122116304 -9.903440161255023
176 3.7741695988811745 2.5852285632867846 7.005681064903123
4378 -10.72099128433599 15.611416584249252 -13.755553678937217
3606 -8.575970092545894 10.616052194508345 -16.957651637828576
3431 -0.10501183566595375 -2.8344232299959313 -0.06662535116448055
2572 -12.36738956473625 2.46192470968339 19.764385451814775
2573 0.9893602880535838 1.6949585538681722 2.3468441337306065
2571 -8.840313878199709 -4.8396507762676935 4.063815368037665
2570 4.208727852022107 9.854520217602824 -3.9196658761620777
3770 1.5048426652401843 8.403174397653096 2.4474822656946205
174 -31.8261763718164 27.913378291131508 -8.615682892245854
172 33.46926282474207 -6.095169693779191 -17.665572356622924
173 1.6290927764460608 1.72092538379717 3.5160250437951603
3432 -0.0679010820057168 -13.84611460036733 5.501643320048965
3766 -7.1777509300731985 1.433002701322232 13.428207589955742
2169 -15.964883050917404 21.83131496945198 38.17865733564744
2168 2.92145091542635 -1.7448507448353883 5.149190679324926
2952 26.975788071994796 -24.703224949950673 5.180778682632004
35 3.5621518073578233 -2.3475484691157305 0.8561669555107757
36 -26.229428904139883 17.65360034469028 10.017393652931176
30 15.957013572086403 29.03656013286625 0.22010170741849686
179 -1.9784404791257417 -2.8110262270376136 -0.3653742130938453
32 -0.8515484625569204 3.2992777307701773 -1.9528878650787906
29 3.8791916669079347 -1.9768260361131733 -11.646553243460474
31 5.926777916520193 19.002551419142698 10.870225842355943
2951 -0.7984303320582337 3.009250290630363 6.179419468350005
180 8.067402242351992 -1.750264252031384 14.432490503000567
5220 3.70035658109883 16.01692134389388 4.947133759498098
5212 -7.970205610307547 -20.221178662821245 18.31613442627789
5216 -4.7061749814775 -2.490283432320536 0.5521929846758362
5215 31.1258055662349 -26.650030902397315 -15.25749963836841
5213 3.694775786321515 2.371840520069902 -1.3780499089105716
4639 -15.853090797514383 32.39956006283204 -3.1301558131120637
368 0.09111850810977098 -3.8614827693010145 4.754445879629672
5214 2.380698129089052 8.967864949317523 3.1077522401938777
5219 -0.02803128955534862 0.9260547745018173 10.474119672595828
2950 1.3710705431478791 26.516142427550797 0.4069186118980141
2949 -23.206985032088816 23.85961424217189 13.645760918610538
2948 -4.103091020872553 1.1799519411515758 -3.7331713884999047
369 -8.378975299530424 -4.82317986583114 3.9865945784795827
417 7.317318409821638 -11.424797916022895 -15.72407187908506
415 -11.249937785534582 19.26154321945701 -24.872933125453933
418 -8.286991627126064 -1.8885375865250427 5.573231997996888
421 6.136840334322284 -2.3114990022883255 -11.13163356457431
416 -1.3667208292209887 -5.084483960156428 -0.10462242214931436
422 3.0680876631774723 -0.1800832662673719 -2.5558982540303106
419 1.2753836100287366 7.552437791756267 1.702643397630662
420 -21.509754973173457 -9.884863196728553 17.606257187166158
423 -10.97974898739086 -22.96667376813327 0.9442402689452847
2946 -13.823093325625253 -8.646641238802536 10.36993425074641
2945 -1.4313515458462098 -4.6735463627166105 -7.389131200427553
2947 10.29885554462055 7.732030376474608 21.932486751782314
2944 -1.6495008423766035 -7.305595174907495 23.19085272949684
4637 -3.2984180368594727 -9.26870195624994 -11.033738942113448
4375 -35.617475691992354 -15.006267808715181 -11.80664614453357
4643 3.7750688537644477 -3.4487430637755994 -0.9609634421642651
2568 11.738648141125077 -3.5090806640499927 -8.448570294455441
3072 12.692495143470257 -12.714024247336216 -13.976517454954474
3070 20.958513026876656 23.220386408804895 6.666987362716834
4636 19.408806024129742 -24.66256793905842 -44.969264854626104
4638 5.589322732999461 -7.197443003714041 -3.979303390661727
4640 1.1768028842303895 0.7619427762090877 -7.711219897460803
3073 23.810250758495897 -26.783431201055677 10.338940895723926
4641 4.174221680074393 18.106844957531052 -8.2903323378869
3071 6.339493602609343 3.3500791920217647 1.4559007613697428
4317 0.06446448392146607 8.229614318607945 30.44594481945613
2567 3.526810648332806 -1.0495944592930682 -0.9084293364709801
4642 28.108506164718957 -1.6618622421881832 -18.23067121819803
34 10.297692075226214 13.218492692873435 -1.7077600986038095
28 10.272266640592827 17.390628170620687 -31.701559082325563
2569 -15.39468961224881 14.122832347110776 11.340388944392467
2566 26.49842471154052 8.060046448487485 31.25041055255573
3607 23.419200991416897 7.813309813695931 17.927535523303725
3605 -1.4929268693252584 0.8637920130712908 -5.742448175677229
367 -6.672156966393239 -31.387116520367336 -8.3479393174044
4644 26.488510175215353 -32.10564622218141 2.740363763224761
1234 -10.876966353875043 -1.1453151574281322 20.218752184288448
1802 -9.127319544989701 4.06254159238556 0.11992204249619141
1801 7.847141799829139 0.9481094184447239 7.771244578143774
3507 8.666375921475534 15.982573561965943 3.849069599850139
3074 -2.417382030013479 -0.2199810101485427 -1.367871032749942
3748 -8.425666941787762 -3.400041117470209 -10.024511695971881
365 -3.8824624522242948 -5.278750940743586 -5.658895717070365
1805 -4.4418103282180486 -2.3709697642237098 6.229949058169735
1807 -2.461524045979864 -24.672899125150895 23.44094747440217
4316 2.8466419650521937 -4.130432121119326 6.835749457059694
4314 24.524095257374388 12.365754020289543 -3.0622963664363536
4313 2.026001832472085 -10.47529381971883 2.4700632310948873
4315 0.5791186539901402 -8.931461702009244 -14.450947966898788
1803 9.1386808732601 -22.7779895832885 6.36031652814097
3505 1.0568667744997085 -12.474868501580731 -4.125243093067218
4312 7.189377278300082 -4.237944559336704 -4.427759979641212
3602 -2.314429305978833 0.4552096931534999 -0.6456507118179345
2498 2.169681509460509 -3.2905161370635105 7.465840070028361
2499 -10.947845273175272 25.555424689088717 3.8906486061764864
3746 13.454352005452055 1.8185675232618193 1.2449781666277269
2500 16.38878375312056 -6.263569282093294 6.845249164524476
226 -11.671643048470873 -27.300194532831554 12.206035626724201
3550 8.984897614351357 11.077011601158835 -0.4792979735506561
4963 -7.629623419965379 13.609660261406436 -10.134452384776116
2161 -2.5516297105963193 2.1962780011913674 -29.5776461505752
1241 -2.825155196419088 -1.8538445357823032 -10.398014498552035
4661 -4.172242770050107 6.073670047661581 0.9744456394700204
3494 -7.0893483760739375 8.524483447131217 9.310241892193124
4659 -10.843473547963008 -12.27812168904506 -23.16482796710653
5264 -0.9323350209715084 -0.8795004030074028 -1.978930130356738
3493 -10.215392207869485 11.358862855851703 22.91073667743328
5218 -6.541115186358315 11.099958542777069 28.59589811584223
3549 19.115147559107825 2.824049127969419 -0.2499843103908081
3548 3.270617681750354 -7.998803019587216 3.089113053096979
1236 -6.326408396904441 15.462965788875568 -23.328421446806473
1237 4.22633014699193 9.090127718731496 -16.814716981445436
1238 -6.45688191329988 -1.704026164639722 0.9467293995235659
1239 6.206612176495971 19.18099578401422 -17.503372114543506
3552 8.943881805476549 22.131468428465602 16.55016941408055
3554 -4.662835088926058 6.044014855633218 -10.604754922004098
3551 -1.313991110858312 -2.8243568147572065 4.081989018264542
3553 -6.165356033113076 -8.738060530551945 2.3853063730232917
1235 5.770942573783877 2.9289973451666724 -0.016713188416485093
4658 -3.1540768914216977 -0.1339630703190029 -7.171297164947879
5217 6.53193432792844 -1.2960243518483625 13.55192736027406
5131 -29.43332659811429 16.476753887155382 -7.741485491499489
3646 1.128262164633273 -43.89477892566419 -11.332768039751011
3648 -30.27089536767812 -29.245209712310263 -21.76329398093664
3647 1.1250104443789455 6.293829341917894 5.668021512468553
3649 -18.67051128875002 -4.1643255512377495 -1.6459073642889857
5133 -8.061630060582628 23.968106238197816 -1.8307036214361871
5134 22.07651186599406 -4.42880559415908 4.4243538419374415
5132 0.7412600181551166 0.5239272609199079 5.134318828303551
3555 -11.859435591417151 20.723652523897822 -6.9580014088964575
5137 -9.44086487031618 11.3681088179595 -7.194398933623775
5135 1.6640663463350973 -6.039937978424303 -3.915874291922349
5136 23.180695758229376 -13.064584272084305 -18.910025199652367
228 -0.27948164372705175 9.066759870983788 -10.826757283817988
3651 -2.566739360180536 -4.0023704165467695 -10.593865761219526
2393 6.4057186894076 0.25260856612334615 -2.634298937345576
2394 26.11586449521676 1.38066959428572 -11.601442035187711
4660 -4.630315634467283 9.882043776417225 4.364445642915548
3652 -2.360540933886914 9.397179560220781 -15.055734896464717
3650 -2.609786845643693 -4.98455617878076 8.373120907071439
3653 -7.91032628413921 -2.5180665293787117 1.3401340843435425
229 -11.701304886410291 -13.199210036045338 11.61145004811292
5138 2.041558155593957 -0.29025000407465024 4.187613067037855
3654 -36.62860433795164 -6.287837945792095 3.8902632515645217
227 -6.316266272454721 0.43674969872958286 0.32343790710789344
232 -0.08694118536266804 4.7968767198312845 -8.738253634253056
231 -8.516946727845129 -18.66421000529687 2.53925515327272
230 -4.881506121004015 -3.0934415997468117 5.333568794950399
1204 14.512545529398297 0.9339144062838999 -6.881559653030666
5379 -25.59471554198392 -25.448891603262027 29.12521353120779
5378 8.067295216118174 -3.662165377691222 -2.8518162298462273
1205 0.6408406341592289 1.7061840060916151 5.910673826066309
233 0.3210488440774939 3.0875268749721756 0.13723514218721183
5139 10.21225386781415 -14.823371051588154 -20.769053208822314
234 3.0429043073352475 -2.148601331245458 -9.135687770320766
1202 -3.223334608277708 -5.578586490330276 -8.454528464897153
955 15.412888495518004 13.704399577905658 17.257642691253228
956 0.055097361178329314 -5.333644683621732 -4.556267564594292
961 -9.652714421998759 37.28226713420872 1.9465697377138345
959 0.2932441527364956 4.960033842292972 5.7762483383932555
1206 -2.8534090457832026 13.021374114394025 3.35980316463726
5381 -2.4128889858726805 0.28768430359254865 1.4400594234180564
5382 2.5603179828224834 8.291963441863967 -5.846452635125838
5039 -3.020231338305324 -1.3428667649611938 1.310305599396969
962 -3.664746029271787 4.475233279291769 -4.480815354156339
963 -10.540659157484347 13.490453136442525 -3.486113732852957
4662 -14.940061726637257 6.084347860390288 11.53396661305537
5984 -0.8456960687691306 -0.5273382726184589 5.468521562464734
5982 -2.658625419469152 -7.486111607932218 -0.4717855913489114
5978 -5.9610125419772375 4.00590930565831 -1.9144985203353821
5977 -0.11069965371465325 -16.752893556015884 -19.831778139687465
960 9.661733277427937 16.23320699338583 -22.74942498199242
957 -8.148338128084193 -7.046485599507181 1.4999301311313211
958 -29.13339993621841 -23.24725274959872 1.5625750890224805
2389 -5.815617783453616 30.44418222369188 -26.72421416728193
2387 9.011365092059984 6.691832780274694 6.163260674968871
2386 7.20587858859644 0.8024489203283793 5.194021171554897
2391 9.857365734636652 -1.620180161946468 24.263915798241566
2390 2.517325289124501 0.3335635413662259 -2.9226384843355953
2392 -10.477260989690645 -4.4211262638900815 2.9440037965506507
5980 4.241320562247008 -21.119430215847732 1.3302240953572722
5981 -1.9871165080483382 -1.1081253699687772 4.576852450955143
5979 5.833030642442585 -5.343034643818385 23.7947430989264
1867 20.5674540625664 27.63595687208837 13.588354245855415
2852 6.643374655722414 4.560820452208462 8.618799419234204
2847 -21.551124048987347 0.50571644812156 19.569672446385237
5040 -25.273169357270756 6.610301663509397 5.446472951074106
5037 7.845062732807957 8.818016548077969 -13.120000569482206
5036 -0.3753612395436334 3.9355927464729943 -4.905355922098107
1203 13.153079924529948 8.861951503385153 0.284146744878008
5983 -3.043845329922669 -6.409761895218138 10.256624199722344
2853 -1.034383568515102 1.545418934040559 -3.2860591952326703
4960 -14.028026295395543 5.899788612781583 19.630420324492043
2846 -2.715403272505901 -3.1949198702392443 7.355328615064066
2848 -11.807951330820224 -7.686176419896534 4.179330626450085
4961 -4.58152673873759 1.946924536520072 2.185416720132865
5985 15.621125670305338 -7.6760606466876515 -1.4436926397936476
4962 22.17019532173801 -9.543144361282494 5.387912458142985
4320 -6.11842452157744 -11.439969329072214 1.2389517488512707
4319 2.465583190991509 -3.735952891158506 -2.2910020858913467
5038 6.1099550600087555 11.351179934244463 8.538414702576665
1033 -5.144971133150506 0.01797187773711834 -12.295290038151201
1032 22.987528972520966 1.352391009054784 7.6314738288594945
2388 2.512549366635302 -25.7595648319279 -2.131968950862824
3927 25.86821246637376 -13.054666852143132 1.7652853732714129
3930 4.953180611421497 20.27126636035531 15.493314175420158
4967 -6.519595457479919 -3.594724679557965 5.101611670650718
3496 1.5081727501593023 12.382499252079661 -10.634424053106319
4965 0.8060936442690458 -15.508370690892768 43.51707093771561
2850 -18.71651868963995 -24.93692602447133 -10.03562387742932
5259 14.151265832568969 -13.47327458082 10.636978285772363
3931 -8.457415154215862 -16.00279619934454 -4.967081224863529
4515 9.87469440808644 -11.908025767985627 2.516037756702537
4516 4.398348189199833 9.167145833773823 8.8603448326421
4514 0.5746261268126555 6.61567593830188 -0.6494863197155133
5094 11.933990979741997 -24.35557628404354 5.066692523769948
3474 5.926644384536293 -3.5703892063034877 7.278653737345125
1960 -9.498897837809697 -9.139331349809485 4.512605183773501
1029 1.344113619560792 10.381791560637687 -1.4880933342084566
15 28.43257923130305 7.203707117503833 -1.8334823016739803
4966 -2.309789717397859 -13.004646830968403 18.552137793383533
2849 3.7635460570695054 -8.908942159821374 -3.1493241408594095
3473 7.040070463605625 -5.049390800503448 -0.3535222856826389
10 11.428995199247128 -0.3499092804470564 10.366393024034032
12 -29.851736895865226 -18.54864310651401 6.998222876698382
6211 -26.554536464848216 -12.17411191162221 3.8178187612174437
3472 28.161381737048533 1.0157458966755488 6.297058870230446
3470 -3.956919517284429 -6.108558476043962 -2.5353710818338357
1317 -8.296460506066914 -4.5493907616877935 17.415202125893227
4964 1.5949157214520517 -6.281503991742562 0.6881682222452005
17 -4.861781379108814 6.596182529228777 1.80595998816593
18 -4.036187754088617 -15.827098541528965 13.869845712103427
3467 10.716852490086158 7.284052123855094 0.3815627748561861
13 -5.556816776965818 24.8708588499956 -0.819244907926992
1315 -17.4020765655577 -4.568735616703909 10.990546310456578
3466 -31.986059999785418 -14.401219543004395 -8.416840042269405
2845 -18.098433364563355 -0.6924715589196819 7.605397600361933
2851 27.4845756162007 -29.579299413488254 -31.313185502522952
1318 4.796759714646458 -3.3671224844975094 19.33133321728129
1316 4.820748830927917 0.03655593360414335 4.5036144450941515
188 -6.361126313722753 -7.707824014890361 -6.813003275026023
1320 -10.472064548903097 -1.3808069474076516 1.7472034016739033
1319 -0.12687860732841325 0.9538889018452342 4.292667280924136
1321 9.807893943967686 -3.598678044652005 -21.70660548268323
189 -6.27139558592781 35.38819505979407 24.642884761113514
1322 5.14469218845441 -3.388716666629563 5.43299508925428
186 -5.230916546547411 4.653547186024224 7.590623052936706
1323 23.561695209127954 7.0368184870958554 -17.12453876475305
3337 -9.75751113868178 -6.094188169719352 2.0492632078409074
185 -1.9140783407462423 2.489432601323193 3.25140129853817
3331 40.843496271466826 6.070874684543709 6.251210349486607
3332 -2.6117332038073093 3.0516614554713883 0.31668296160977305
3334 -14.540078362438301 25.99573612365258 2.7844453896133534
14 -2.296112079910286 -3.986357423620506 -1.9372508121018857
16 -28.09488507817229 0.7956668821203584 11.588268577346549
3336 -8.726695087572024 8.688882470785337 -24.62417834408221
11 -3.5967862893232008 1.4776065828708143 -2.2817021227925975
3335 6.0054249284195 -9.251439676192904 5.828156535553057
2784 -0.18317553338975093 -18.47599163257801 33.7245798997561
2785 -6.774131287632134 -26.091637718544703 19.090402107885648
2782 -3.912663671462202 3.431411244262637 -17.533733018883304
3338 3.3344114956955084 2.396756388716763 5.694170280247751
3339 -28.305387746841134 25.727191746158397 0.6424182490171487
2789 0.34617213265052654 -6.422769293275581 -0.5581578246072544
2783 1.722813844667444 3.6950333872441425 9.769861868005346
5868 2.8764166126101243 -11.844421053559223 0.7141131114845539
5867 4.913153720660646 1.6514979001292587 1.0524601256227892
5866 19.92750666606893 13.619743751863194 -8.217239546422704
5864 2.429291759125378 1.6689961494368675 2.5467553929115896
5865 20.35387015348536 35.15747829106736 16.023673232211653
3333 -12.99314833612668 -19.199379713320837 -0.3988407584233241
181 -0.8663844577073294 7.025132995974231 7.39031688734144
1035 8.132632108991974 -1.4260822597968177 -43.7508450809644
5863 4.912014653278923 4.051930148833593 -24.895671194970685
5861 -1.2318634317612873 -1.3088813750437147 3.658041874370071
5860 17.119629648333735 -4.202739793800689 1.7588711877639476
3469 7.384551403486695 -15.56278906038501 9.052643146445842
5862 -10.727638992702353 -0.48210096218961457 3.508119045024093
3471 -17.287833740697895 25.711931428202465 -13.297493340393434
1030 -10.774689494186035 27.802863565891556 17.734905182373584
1028 4.572044847630939 0.8411472231297973 5.803877394773677
1027 -5.229183235464453 20.472849935359918 14.946059787466549
1958 0.12968215870631566 -7.547024711688325 -5.328201402886617
3468 10.587003680992627 -5.128484824776626 19.831550845917658
6217 -6.787164849499259 -10.099051974425294 10.687574781086537
187 -0.8928719524885584 20.619964084232386 16.82736160372432
1959 -7.8380546753315725 4.682672575308087 1.024194563081148
182 -2.1184114386678723 2.2668690704179233 -2.0183047550180016
184 -1.4421926420673084 -5.08754080063008 -11.7024913471651
1034 2.357981182174663 -2.273717715356644 -1.0482202214319314
1031 1.2570639777164914 -2.9984065303068808 1.630397904764793
4517 -4.34960112255343 1.9252081609977405 9.398737047712078
4518 4.482944820678172 17.49882598580065 -11.171319178450664
2838 -19.040458650707535 -3.0824841737398896 -3.226578999327678
183 18.39523499554122 -10.244248913162549 8.878461461201216
5907 -7.586422838525467 5.96516541556708 7.691895566340632
5912 -6.862620523051267 4.405934629678266 0.5808864351603564
2051 -2.372923282588418 -1.3545859226291368 -0.1895942235013366
5913 2.9371043706716606 -3.639789727119169 -7.161815556387337
4612 -3.0193646421790503 -12.629465895996642 -1.7760885724936053
5020 -6.983916685055139 -23.690080959011176 -17.40949586024365
5019 2.0941096180964314 -0.3102690055499812 5.910748721187259
5018 4.933085176404712 -12.975384232373134 -4.636403767578104
4293 7.563427241762583 31.80663279730704 20.913139348306743
4292 1.865414276424984 2.6100070978702563 9.848540889173643
2297 -1.532388154362153 2.821422020763384 8.778388780198593
2296 4.8263054927261395 3.039308334653986 -26.26293407306756
2299 21.996333269401656 3.3703756327281122 16.286797163871324
492 -10.081558090832074 -8.022185159128272 10.56720152935565
2976 -26.018276377364447 14.012426799664542 -4.086248427750512
5631 6.108938851533741 9.053353746906557 3.3017453035010504
5021 0.10758246523199597 5.3504982650008 -4.452669421947559
2303 8.205956840977285 -2.8116632604686456 2.7848197551153526
4290 5.6392037012722716 -14.0591642692823 5.008199799606593
4289 1.9110980062939276 -0.19834224953761032 -2.471375222385086
5015 0.038000650625548235 -3.6180541248350977 -1.4021150930986161
5017 -7.078667382482684 -0.7517514736515272 7.621929502130882
4291 -2.1794477078140386 -17.212176640230556 -2.9337681123790817
493 -3.67133031741135 8.53841795079343 8.46652268059912
491 8.027626150674548 2.195865509402305 0.7613084499449837
4287 8.443972863638816 32.84185797914458 13.172143841111321
3386 5.258206255423623 -1.6956565316758618 -5.074828095493382
3388 -14.007460623333118 20.082305092520162 6.391048992075605
2357 8.201669332374946 -4.410459114244317 3.9715715928296356
4286 0.16007051164291586 10.647452505351524 -5.144676499107835
4288 14.234537114635378 1.4991988925254804 -2.033259306500948
4285 -5.1896320810165175 3.6549757204492623 -0.9266559863296705
494 -2.636583438555399 -4.112404046888971 -3.6490147448114865
4165 12.3504058332272 3.6485228318836054 -23.19141989041491
4164 -13.665873607478732 16.629402071599316 -13.036658615000041
495 -0.06324141097070901 -11.750516256435532 -32.99971086286092
4167 21.06243881581473 -12.584279752083301 -7.508178926077554
141 -22.882162470115492 -6.392173803744143 18.7377606102134
4374 14.579977325747992 9.274274954116587 11.251182811232788
4372 6.326934667242667 -18.098020516995508 16.200765537746243
3387 16.1579387337375 8.322203893981865 -10.3345304727307
2353 -6.270256364905785 15.36468261533697 -38.680733017843146
2354 2.3986820782041773 2.6709118124604867 -0.14026102641989388
2351 4.208910081312961 3.750061594904281 4.167865180800333
2352 -4.509762906849757 -17.39398899210412 5.5265476914729765
2350 19.679947024148404 -26.20876929984321 2.329604167537979
5016 2.8455003820428884 -18.02679651201201 16.408104852165188
2356 -16.774963899463902 8.374446432361566 6.41019696134817
2304 -6.573734147334013 11.098888765704455 -1.6169920745192137
1743 -15.592978561710863 -3.6850891782301147 9.546120108116519
4166 -4.000256248385266 -4.759619532457233 6.157124253253138
4163 -4.035509987675391 -1.389807056991146 -7.008092763687511
1745 3.015134962435963 3.0452152134633703 -1.1710785393877374
3835 17.300346224686514 -1.5197391530300293 -26.77862459704405
3837 -12.587131218052033 7.643805566856951 41.57159028226108
3838 -3.1255221597396696 -30.382821383467387 12.960087407154887
3836 -3.187736898272771 -0.0576214307785498 0.3288968823871936
3839 -5.816437000207511 -3.4138555950456957 -2.6948157947948066
3840 5.74489662345854 1.8154082142722663 26.08547938009246
3841 2.604444703156578 3.9421832337989553 -1.8362155316662916
3842 -3.0149334377696597 1.6172270273984712 -1.5189866325784311
3843 22.300859170417315 -5.269739535814623 4.340183700008258
2052 19.32894267070881 -0.08873515657291293 -8.467557196117248
1742 -1.0754515974407688 4.562904221757945 2.294619517462851
1739 2.4494053005774092 -1.9998136516767384 -1.9870720801028838
1746 3.119375742110171 -6.669467730861585 -4.016584003190394
3203 3.753371141138184 2.1235451128084986 -8.83820003095754
4373 7.145902572725798 -3.7193962763153325 3.6730945503813586
4370 2.200721488448525 -4.026049488975042 2.9233381935566825
4371 15.499448312826159 13.504831450783572 -16.113682471759393
3201 -3.2099257396966254 7.026197551904307 -12.356492874518349
3200 2.8353902338236874 -6.03102511535983 -7.117242235972943
4366 20.11490360051193 18.200558974032436 15.11621722245524
4160 7.789925489593471 -0.5191432959509984 4.607540168578062
1744 -7.262812333743547 -11.060622237644768 -28.126027483176134
4162 -0.1355548145675281 25.470176054471995 9.23755952549168
1741 20.69088898846492 -36.25863412818787 -2.528040700052565
4367 3.2737696431380447 0.4779337100446303 -4.310920315236896
1740 -25.715976412850647 -13.42524218955202 14.674933483088633
2185 -21.08557315833654 -14.704873936574602 6.612950252413798
2183 1.8322652245250592 0.5270723111131127 -1.3092925210660205
2184 0.5502231240610508 -7.263905673213192 -10.39223817706013
2182 15.16208615980687 4.885718374574229 -0.9038317619205177
2180 3.0820054461374395 -3.1673347178334126 2.3852978924244557
1912 32.18321396568811 -31.88130732990766 -12.028981734449467
1738 -5.0920668607395685 -16.250110928540497 16.33478762941711
3199 -4.746002416435946 -10.8466466337967 -10.248197286266914
4161 -12.098156365263243 -16.800244741269722 5.226995422110209
3197 2.945435961318299 -3.06449282411334 1.5021958942860125
2179 -14.206701401522167 31.215630006248137 3.7061630492198323
2181 -12.203077250760515 -17.40215634287126 -21.156920220117566
3202 -15.560081640943292 -3.7950135356565506 9.868771935110182
3196 0.8416533499298747 38.34744239912176 10.294951114902762
1909 6.9430995304264735 17.192361983074054 -9.992555044736285
2186 5.008193099890051 3.786593592460114 -6.9624081671574585
2187 -15.633080692887097 -9.232129730231204 -13.201356658260135
5473 -26.88529554772712 14.263186397594188 -4.644308917581064
3608 -3.523729623473454 -7.017065244092756 4.527933413626648
3508 -8.007794198143047 -4.96473133251471 -20.440646544193427
2049 11.383950026812983 -1.2253479562838052 8.573013498250909
4159 -2.5281866234269637 -19.02207661052941 -18.76376821474666
3204 -30.907295679752576 -26.473248603627695 -1.7578126287233982
1932 -5.754461391609578 -6.5985220544760885 -4.903096320681894
5483 1.3835783824165182 4.699554286881282 -5.48330624790038
2048 9.241566312262165 -1.071682540477519 -10.825687893378108
1933 -4.485847782708618 -6.502755994076872 20.903641434706664
3406 26.37860954446196 16.09743796518099 -7.866999843236591
3405 7.632850957401454 15.122564509647844 -5.237419963421322
5487 11.130539656515863 -7.787348104187501 17.655181662136826
2050 2.758061106777038 20.32863631168746 9.089510458016216
1930 -4.976022265046857 -15.662898188242156 -8.839597923338658
1929 -14.098531112829779 1.3587919394485526 -8.471195304296922
5482 32.09428328311216 -4.098143293962581 -15.16639004651979
5484 6.436420857790602 8.311484830333908 3.672143271581042
1935 47.626999411883276 6.414202722841818 -8.961082975910106
1928 -1.7446548018885346 -1.5108077696721984 -0.7779826898628159
1927 27.68747195805689 -0.33654377105876265 -14.606664759339994
4318 6.869140306389148 10.942145100700918 -6.37212657622327
1934 0.6301449381132802 1.7248495771976704 3.0299419062112816
1931 12.605678304989377 1.3925922201050949 -3.7701427022499963
4212 9.135629522067056 -0.5192752989219102 -10.969227935645819
665 4.431980917160834 -0.5512255841384078 0.6428211185826599
663 19.07034526312556 -11.585764132834392 -13.36847590707139
664 22.44045019441126 12.732345528712617 5.792801867165609
5880 2.583531798923985 40.61837161531496 24.093811219877427
5878 -1.0141522831936152 21.891760926376715 13.500733667155354
660 -3.640329494499316 12.178359989268037 -26.361696175170163
659 -11.991285483626804 -4.154420667067162 -3.2352753529154867
661 -9.82314335818985 -3.2960687496170946 -0.020909756936872984
3198 3.7916041668557168 -13.126558790555364 2.3810399938458633
666 2.309346879659495 7.73002234278118 21.32618875373307
641 -4.617241823065905 -1.8055888494970598 8.220621921516257
643 9.138942013202042 35.691095907174706 -29.21962548750335
640 14.036113952650746 9.27869072470837 16.015815304426877
658 7.278334877954928 -11.6471778555959 -2.436111334517455
662 -4.788442219047189 6.030487182519688 -1.062904340290174
647 -2.5307101582979388 3.3953605259277158 6.610237453052605
644 -0.15709472024812696 1.5599202017361462 0.15148528989798404
3604 35.20985095475101 14.087314639959287 -8.668440104601105
645 14.73295330253843 7.733510773642392 -9.72229016717491
646 24.64663778471656 -24.103201346213055 -15.713234818834197
3503 -3.1383411472146006 -0.5846275565224955 0.5241290881635038
3502 -3.9617167446721124 -4.597317659995354 24.658521383580684
3504 -13.747774367819693 8.102640190839484 -27.719110738229556
3506 -4.566070761969157 2.823966580400699 -3.9642510582333643
3509 4.680470232874494 3.4120050062323504 -0.9885158762189032
648 -0.32003633971534556 -21.607346373463432 -9.385605189489224
3510 10.92267035329049 -10.164624216783782 19.81375912729611
5881 11.667944577253607 37.32566679956332 40.17842494523517
5885 -7.916309740855734 2.9584295487095313 -3.921328435640105
5884 -40.69171854254039 0.5867590576608499 -39.96807166373993
5882 4.88354731648176 6.455523178093466 4.933979790527459
5883 18.38656977299318 0.38318798531479786 3.924889402614816
5886 5.640868049994188 24.91134225887456 -11.228769000434571
5879 -5.9868166256219695 1.7882896071789283 -2.4270247893598014
1491 7.527982423725177 -22.211416881972685 -17.68597194854369
1488 0.2837259006584475 -4.539715330319688 19.29049383495898
1492 8.980394225968938 -35.31800845509809 15.485286641124793
1489 -13.498343167708413 5.132852518833027 8.091439050638446
1487 2.8364790554487205 -0.025078810840250584 3.566532473187799
1490 -9.505710991195635 0.19327478396729358 -3.7526726213112283
1493 1.2468057159991042 0.6761961725537373 -6.633182082935795
3411 -24.105061098542024 -15.15348024540733 7.2936481626394905
3410 2.899486428393801 -8.411904495879977 -0.19910877316579476
3407 0.27015872172287403 4.507848562529183 1.2250199714434116
1494 20.5662025190604 -9.539261455125086 -1.1992148962765172
3408 -5.011027077628959 3.315003917171902 5.114467180396826
3409 14.163255511140207 -20.32760968301549 14.127093094733057
3404 -7.742918192111973 -5.334127642976894 -4.662482572147683
1486 10.689715006159732 0.5537951248656116 -8.428756357607066
3403 19.39650867071802 6.795310900574129 -10.635549625646727
4209 -8.613834039272152 -1.1528051487553486 22.421298343561542
4211 6.750331436498789 -2.9520177438109014 -4.03108411696859
4210 -22.66800821057491 -15.10042925463247 -31.4540817704812
6159 -1.5982107065193638 -10.053905546236589 -1.350839557114039
5732 0.67151465013297 -2.8633526637775684 8.14237105662348
4208 -4.4734911423265595 -4.476508018111582 4.986516735125233
6163 -3.835304368814143 1.6364670227194273 7.4251478262916555
6043 3.342232445337106 -4.925064866894235 -3.8482364336986827
5730 -25.936471377424024 -12.393374679391053 5.3410061115796355
5731 1.3525303234766017 -28.93450848936883 1.7478919918688394
5729 1.700184818911393 0.21536485349085152 12.21272639847671
5733 -19.280436557411228 -11.273424299033282 17.336191781024592
508 -3.021528854365215 1.5539224643561278 0.9647641119122905
1198 -9.590978614549353 0.4620021019104885 0.0626042619844721
1200 0.28052643203891237 6.2080134985425826 21.168295934210274
4135 -7.5081510143322285 -20.911543631296677 -34.13860416535016
5578 23.453685285383134 3.434456532718985 -0.9551360264495273
4669 0.36969373551520907 -1.519219657012005 0.08133113837149203
4668 -31.3340216868792 4.576548904933861 12.505599519885903
4667 1.0347508340917229 1.7080831132772594 9.434918242791897
1199 0.2402183495278961 10.731863610798012 -0.31424704929758135
1201 -4.89449012653989 11.561105193936726 -19.725507093670807
5380 -9.804052324026081 -7.669812078066265 -13.349218465845526
5035 -28.7756357119206 -20.21602638365453 6.8116788585730905
6046 15.865532296029558 26.74551187088204 -17.731732386641013
6042 17.964302594379898 18.42878502326989 2.8289561972228547
6160 -14.829482335449784 -18.650025227972126 -28.779950294982015
6157 -19.310150085270788 1.8716629434127101 -17.72814858774593
6158 4.592618576340067 -1.5266378226835096 6.16322285466562
6048 -2.9467824465276817 -34.230180574220775 -10.274612378233046
5033 -1.9066807616768722 -6.637742575496436 -1.2037121205501666
5034 -2.610123671843747 -9.848528768134681 -17.46096456922769
5032 13.018306961035098 4.036499914328537 5.864198076775382
3160 19.721530927281947 -14.94885425437783 9.468866501998129
2335 -3.61384471382466 39.836769826096 6.264512067580007
2337 15.904647396555756 -11.147965472734858 22.89625487810632
512 3.917216393371309 2.8036168872803073 5.6147981244836975
4002 5.143987666986457 16.876844754290758 38.39626292458663
5580 16.75428976454684 -20.708256048730206 -11.114111993382394
2338 -12.764335177258403 23.31277049636961 6.267063956237541
2333 -0.39599890436802565 5.104092095798335 2.12469883618323
6165 0.9036047385711795 -10.32119231417413 -11.544597234895432
2336 2.0672269289824405 0.8757988591048225 6.397323450021552
2340 -2.5262252825945897 3.7349370707103287 -8.237756483500329
6164 0.6961531374029201 -3.6754491908494202 9.00695992600871
6199 -0.1811875047049022 0.3804199196927516 -26.93441926019478
2332 -2.014000156769091 13.288429042233803 -14.384723742699105
2334 -0.02228888270936304 -5.108768638015935 -13.261046970576363
6200 4.932142904165319 -6.14009597664559 1.366874770468805
6197 -6.072180289405155 5.666924202880338 -2.17953143363506
6040 28.845422565333124 -27.636812538972105 -21.241912948188872
6047 4.373617180027897 -2.142872612880086 3.237721635076416
6041 -2.222058463189442 -2.5036306347226613 1.0914959822415071
3999 9.046358267394067 23.090240206307378 3.1812172006463397
4001 -4.5649984157182475 -0.9193648523524144 5.5818681541377275
4005 -2.39936145821137 13.084563375172191 4.7262397585034
3998 -1.0238131507591266 -2.3700389441639387 -2.5322228536871165
4004 -1.9549178689475675 6.222319036028355 0.41272738522994495
5769 23.60737169980861 -2.680648479789272 4.321078969628344
6162 9.494057990784322 25.252389642081187 -12.495311826816772
6045 -24.348296683826504 10.67081472498783 -12.694664836124566
6044 1.2357192629153917 9.122066030356933 -1.809171388099747
6161 7.5980270858125065 2.5889143534569525 7.500660252594359
2339 2.006686340756081 4.486247066424246 -1.1107274376835743
4671 -7.00290548492558 -28.842924512062183 10.35784829062678
4003 -15.063140641975007 -8.133174044276691 6.528235112399185
4670 -0.8427223973590158 2.20326054456835 1.5309008084543707
3163 4.502366891780589 25.528199804035 7.085466089477125
3162 12.340395572765892 7.568481696147451 -3.58103322190021
3166 -2.5314699182462976 -5.3956981206688335 -3.3557760861366805
6201 -17.601314248312484 -0.4707161719152605 -14.890624180633338
5498 -0.012512911250714444 8.064002214320885 -3.3255206864337805
3165 7.825904680235227 12.961085332211935 20.93818586877332
5499 10.869784361059882 11.499863875678136 21.97878314906522
2582 -6.582461338806755 2.539309535155624 5.253545063266403
3161 -3.362305813078115 -0.25586450963691054 -0.8727933297245171
2583 3.057590425667465 -36.30293778763697 30.087833299589807
5495 6.442374085052306 6.812572866236856 -6.746971246144313
3168 8.55013772066874 -7.867196686111886 5.4779957275478
3167 5.602882612387955 -5.539027554976376 1.4545293709360914
3164 1.6919353232916319 1.6260189056275267 5.947224323303416
462 16.844885739063127 -12.988766042350315 -14.694982548058574
464 1.1801837151844872 -7.274560868980179 7.780921637318763
466 2.044539750647545 3.392523893753287 21.873523764444098
463 16.645582256946273 -4.56247980211813 -14.919787178139787
461 5.232191466955907 4.627491213578726 -0.3835692688103337
460 32.63045624186617 19.2956657641711 5.7919717305613965
465 0.973193550151102 -0.10080097306110472 -27.07764609746466
467 -1.833970702844812 -2.5221770380470367 2.9839897548893304
5496 -29.450297708145673 20.042278292862708 -5.709203635541184
6198 -8.86793385819204 5.85951943431144 -5.510900878176733
513 10.081249867436531 14.557202084115968 27.893290140767014
6196 -12.407528648907181 -2.0026386532946967 -6.371084638421511
6194 8.05486963604979 3.903316420619753 -1.076729604069763
2581 10.52669174302405 -12.74476231342172 23.40039438645193
510 -16.695510227886782 -6.78106805582323 2.166049141091968
6195 2.0127079154489693 12.096432045160224 7.895907086059337
2580 7.249774070913186 -17.764374119457173 11.539746867973053
2579 3.6282741977280333 -5.404249609836782 -3.038780643096943
5497 -7.996661117068916 15.48262606073951 7.473584660455128
4362 -2.831965498426553 8.660982718140174 17.41385262252965
2488 32.29374660304059 -0.29566817193444234 25.884682357364067
4235 -2.4269076208681954 -4.885832490370675 -7.6559728803791085
5316 -25.582965050982384 -12.354805111973144 -8.637842314271628
4237 16.527920278297113 12.625155516323689 -6.217112532128113
1546 10.659579633560787 -3.4724407792942102 -2.442031863302454
1544 0.9768614021892987 -2.6925842097948247 -1.6777146355688206
3246 -6.297745037241909 7.736265236060063 30.387590106354367
1961 -4.212837229086717 -3.7768831972914287 -2.661251359131075
1962 -1.4302131190388272 24.449318360963726 -10.746864181211485
2842 25.589776535022004 -7.4183478464196115 9.058348652578829
2840 -0.0583721289005058 -5.165539299861263 4.452485383952711
2841 -13.292272035354946 -23.5617571753138 -0.27305555196017317
3084 -10.248169488687005 -12.190648110640561 17.781559747329588
1954 -6.713288351089857 24.074807461788893 -7.807280921393579
2485 -17.96088402146841 -8.480328991968243 4.926907677878853
2486 -3.2338099327186365 1.7907956316096338 -8.634768714512854
468 -15.343695807254898 -29.864320480313733 -16.19771095410785
319 -23.646181822956493 -9.199913215852959 -14.38089658574007
1545 -0.1821767534633151 9.959401541409166 14.251973200923349
2836 -1.4471115247693784 2.9266609462204047 -16.706450943222215
2844 -19.652742367494934 -16.086971993706886 7.628087085811835
318 -53.464990772462734 12.257488435909812 -1.4184862031520864
3085 -21.08176887160222 22.290632853109695 -8.067626863594688
4834 16.812041648752746 12.008294747739642 32.29944377797884
1543 35.8352934667527 13.70287989327367 -23.416217082824662
1541 -4.236969915423713 -4.143020298586532 4.2888750403355
3247 -17.96475345199652 -1.5707171008330765 -14.953561247920476
3229 -14.928075909824779 27.550299460700558 -4.198623193148792
1956 -8.53073380998386 -13.774016174574212 -22.830438501241183
1957 -0.2506145686656585 -31.507737824507736 -3.3144723160263854
1955 2.0816270995354835 2.266410682299531 7.655193271685963
3081 6.289126515208558 -1.116562505065978 2.109584742381515
3080 3.6610807645911843 -1.3660657935911547 3.4708275430901185
3079 -13.633694252634193 0.585943850413541 0.04252469580852189
1540 -10.764915588061958 4.0907179511887914 13.997617939090484
2576 5.30766121171419 3.658078697027955 -3.683668609969687
2577 -29.514170954941054 11.011074511937 12.35796328862662
2575 -4.919337834165321 8.890720535220453 12.603621315752372
2487 11.93333221720439 -18.769303453251823 -25.278898344716037
1542 -4.58412869743715 0.17585088446589153 29.7573851946592
323 2.5787463595593896 1.541802435371882 2.7181385002914498
324 2.2089978293218433 -21.37580647955375 -5.203920789823014
1915 -3.808871322379921 -10.594939351689872 -3.408461460501652
317 -3.8949156963027654 4.251991481082377 4.04943486119536
2490 5.909563574047412 1.7192839406444225 9.767239789198548
3083 -0.11957141592293132 3.16658270579521 -5.316383839908649
1910 -6.118043742165858 -4.866585139800314 -5.993243577127501
1911 6.883455948096119 32.45907604218502 -13.907923628309987
1914 16.91902180924258 -24.604015283422395 9.30698452510051
1913 3.110403224920822 -2.4539901757253 -7.850340015616908
322 -22.828134081651747 2.1640788341476815 11.900321153827354
3086 -1.3665534302246003 2.9491496251562945 9.746635993426471
320 -5.501290531180192 0.9212068365791947 2.090564218315982
3228 19.855259979862545 0.28531523746840814 11.780084315170987
3087 8.61979237558714 33.18888881287595 17.049491025700764
316 7.21056284620272 2.775164678284764 33.66588896916279
2578 1.4699410113781257 -11.675789139747554 15.564979032623624
321 8.55494239101024 9.610706394254203 6.8830233656174835
3227 -1.9159836945884479 9.480500744401695 -2.6806293508494954
2586 -5.500358676544861 -1.5649940487862781 -2.5765204111554723
1009 -8.968496786585856 18.233153314330888 -27.464707731852794
2584 14.400446998636529 -41.608078605106535 8.494325162107303
2587 -8.14889507049373 -23.213763647132502 -4.0751573243745565
2590 9.17592395227667 0.7196990008682582 -4.293974428348627
2585 -5.745283136905717 0.6769479231085441 -3.0175331215106187
2588 -6.582280090878345 4.667615417704488 1.6233908845014435
2589 -3.470885935390525 7.157357492440277 -0.3713537914265848
2839 10.441121604732341 0.55554746317621 -11.3130554016886
2837 -2.148734708121827 -4.760820254016968 2.2322604374057207
4815 14.231276746231847 10.635044534907124 -18.358726617204837
2843 3.966459078984064 -2.8327789705316286 -2.11568246259629
3231 -4.2311115623370315 20.917164663496113 -24.71932400467088
1916 8.611133776567303 -2.9140731839856335 0.6916252819193401
2592 10.801600918692754 5.832012311432092 -6.642950574290202
3230 -4.2169297085739075 -3.50602651272633 -1.094531474738808
4809 0.8908379654776104 9.909818276460472 10.740676189860782
1917 1.3160522712437595 18.60579404117753 8.38768064729922
4811 1.3724695140086403 4.115488237588835 -0.25375161991295037
4808 7.556327280616577 0.1907529871331591 1.7900877436218623
4810 5.869470557041768 -12.262604854432887 18.77265565943699
4812 9.956714763520141 6.712158792794313 -2.187801723769995
4813 12.67616504178695 14.565941540302775 -13.317158941037967
4814 -6.233853858657511 0.7728583891177327 -10.277238207273875
4807 -7.554187367638296 -9.507629527474386 -0.45549033649064674
4839 1.358121522060744 -10.72657419817113 10.205604837038791
4842 -33.49202544649089 9.493049932064542 -16.689287886264566
2591 -5.3079394706414185 -2.9656301970854 -2.1578969341864043
4841 1.1276565332938573 1.448101779497578 -6.427458151494068
4838 -1.3631234344035112 3.3836789211869536 12.732473659086395
4837 21.439534843846673 19.043294740986447 -0.6648384974670918
4835 0.7557245546210448 1.3105520668223911 -2.4582663163282956
4840 -13.628197850262115 -27.720540899530434 29.52307290142272
1010 0.9930042576880698 -10.412594425823928 -5.790549881988814
1011 9.857466097235639 12.956920401634877 -0.1336604058023442
1012 -18.941081223170766 8.827381514063593 -21.62558293766591
1014 -14.227118695565261 5.457257179340014 11.48612727004695
1013 3.8442127544532183 -1.1436774351476753 3.967678925162348
4609 0.8827759375641014 15.076424874318974 46.863860479776214
5563 23.271330604492295 8.98388542292664 -11.682240638518543
5628 9.607731028847184 2.0093738707096356 -19.070407508795853
5076 -3.9381627692091024 5.770808592067443 1.6417924260597248
5169 -11.519530210835228 3.2860943944709424 -3.978135156430498
5167 -1.5325129992103057 6.4445753097640495 -3.383188139865403
5173 -17.720327442609587 -9.606599669441962 17.613304565442473
4369 23.395326413044284 -25.83677354871739 31.802757702768393
1015 -24.470056547792744 7.752728652928929 36.57354199853713
4611 11.248959643612762 21.521405182810952 5.611029419532063
1372 -12.045349045812149 -13.798837478072162 -9.614685125687316
5629 4.1639489307783055 2.5654914352501317 9.617008362162029
5075 4.815318101888387 1.748318864701475 3.1251357394353674
5801 -0.06601512587840178 -5.833544733627056 -4.629770878613995
5803 -18.06796100421356 15.920751025889796 -7.039713193946984
5802 -14.900657609947718 2.359174043236701 -8.240322801313964
4368 -28.433325933335286 2.245954411616427 4.313017940460694
5799 2.903854204980046 -8.071214981693565 12.93209197973466
2641 -17.856315836648 3.7732511918355907 5.4280496669943075
5626 -24.808201138609167 -12.09918666644397 -25.18071372370357
5627 -1.704721463272886 -5.979634166790694 5.1287142904962915
1369 6.506041716931417 -1.8373945660100859 7.495500168106572
5800 -31.78638476490778 10.443210074306423 3.0829792417302615
3657 2.5339689867806254 4.2890364630643125 -3.7778893602790764
5798 2.340879251203302 -4.0723860491480215 -5.547707787929986
2920 5.301434529416714 31.586409257961336 10.920722284285084
2917 16.964117064828258 -0.9611006201329383 17.771911826390586
5797 -1.7477035790111413 -1.7437901408828285 -17.668835310960073
3144 18.288722209714106 6.7109567618410315 -1.2640153845450115
3143 -1.5854098300041501 3.6848762149784244 1.5222305935701232
2925 15.462826144484955 -8.876536402167604 -2.462138668710946
759 -42.037789769039 4.585423965405019 28.391784729860866
760 -7.249280826754109 -17.049420642595205 -5.597694467855193
758 -2.388813412178195 5.214235742153407 -5.999368690846563
3661 2.3969570754571916 7.907853430298375 -13.780191184338635
3660 20.466109631309585 -0.6794716721619177 2.2096676908135313
3658 -22.047330810420043 19.70687821905586 -4.024697172627579
3655 -31.56909121273844 35.83617710287268 -11.483489572586109
3656 -6.624374268544145 -9.074453965480913 3.5335884441648764
1453 16.278740954950642 19.199762724686828 -1.274054366809208
1450 -2.3638368528308424 -7.147572204454339 -26.011518406335355
1456 28.67601170070679 19.76698493173208 -3.3364796036584883
1451 3.172726934491527 -0.5900833164412193 -5.151881129616892
3450 19.388744036603356 11.481310830876659 -18.469941464938714
2922 -19.29565143395218 17.94037988982813 18.70244508886028
2923 0.09229916990085357 -1.810394805402727 -21.43512088664461
3659 -4.820382473375719 -2.4347901266732452 -3.7502759555016048
3448 -7.594108953159476 19.96452885446075 -7.420213728057984
3451 -25.50937834332471 9.776736904909347 -15.260908335163057
3624 11.17791262070151 -21.364779465029276 33.39667526706242
3449 -2.132176405960768 1.8293780259667964 -2.7806865308490196
3453 -10.603682809821153 15.965045879635303 17.469266038487994
3623 5.453990618154115 2.8161675851503447 -7.856839108052376
1455 -2.0225441195166196 12.39037169786292 23.137620768876005
3625 3.8353430442472973 20.03275135632844 14.813970508014831
3454 9.998017821110974 -19.706421578145278 14.130079388976684
3627 -12.19602808228707 -17.55882585774889 -2.0292907863638088
3626 -1.1267263833277605 2.8416644145515795 5.818025707693401
2921 -3.684145702855332 -0.6860614599693357 -3.4848382547715206
3452 -1.9425433444820348 -6.4069017350736965 3.4895946159864613
3455 -3.035181448072962 -2.397126524127594 -0.1033909606900671
1458 17.861472097047624 -17.393972385909933 2.0774916757396356
1454 -6.383438417361288 0.9019281537511197 -1.6020147219290748
3456 -7.886930887701564 -8.673352200254534 19.502070437598896
1457 1.2936576417354009 0.48665302459060655 -1.681265359029816
2919 -19.272173230387125 31.45448264259625 -31.291722971757864
2918 2.8535591007343513 -3.5330916326875124 4.630453118969521
765 -0.2730883076593416 -3.4591074254911667 15.553923552883408
2924 0.12093521827258227 2.6951929270489816 -4.547555237531724
764 2.274354242637063 -0.376657518119062 -1.6764473174772143
761 8.13772965080544 -2.9148582689774734 -2.959467526403862
763 -11.225878398183434 -9.498249776284752 16.590642243159234
1452 -2.354401008013712 -5.951973305154636 8.50794934639452
762 -13.358170241362387 12.834258356372093 -26.032243015254252
757 -11.80740051801446 2.662118856319582 -12.250261652009398
1600 12.655316364141235 -9.706184453085514 -6.789736302395656
3619 5.494415878171899 21.490131240155296 -9.398194689600116
3620 5.927123934741711 -5.2229962349607595 5.328241932564883
3621 11.84427490645588 -17.328063619268047 5.730745590369336
3622 12.681314364717851 4.386382402321488 1.9862161834447944
3903 21.350123842788477 -16.691035555245268 4.753658354610245
6034 -7.970638600427304 -10.847516929673931 -17.718348272235346
2719 -2.356564100133497 -19.766042648209343 -7.640105338214366
3148 -5.983228187446897 -4.381610882883434 -20.711131594021634
3146 7.318902583910643 -1.217035977821396 -4.361810406529068
6031 -2.3639461125227363 -1.9897405001779092 -1.910320727206869
6033 -4.914295252678679 -21.951859907224094 -19.34382926804311
6148 -0.7131503149064433 -12.709822765496174 3.2949592072606797
5566 -8.59001806796926 0.6979018562419466 -12.304524630017156
4631 -2.009540415041206 -5.389761369608972 -5.72066061574713
4633 -35.139802550061155 2.4535215829304735 -23.009534930525565
4629 15.200521654041356 5.605773639670783 12.697661510391875
4630 -28.061407285787183 19.979301429920998 -5.685325833885005
1275 -12.873302198017493 -14.902185317127529 -13.15944459526402
1264 20.731719120237567 -11.250250555322342 1.455447816009069
1263 24.775462193701497 -1.8938767941088688 11.97652079229067
3902 4.022953546035294 2.170671866056876 4.382248198385538
3147 -16.323084273890398 16.04589860293711 5.271819572091503
3142 2.9999839472711516 -20.977157528466012 4.371335634175973
3904 24.121979821848694 8.846419483426176 -15.388038726832184
6032 5.565330588034525 -3.6011832007217928 -4.400632568027389
3899 3.579638755777499 0.9150815895855022 -3.6350895602408184
3901 5.357080851021989 -4.745906011729349 18.432950624734165
4632 -13.350768393658106 14.292623017123184 -5.148330937199346
1186 -16.698418328980637 -9.86286011001926 -2.2806136323126287
1180 -29.567470829361156 -3.612116109163869 15.573676258628966
1185 0.5615882597104161 -11.540254200204835 0.31141016723191944
1184 1.1872425451122504 1.3999982398593955 -2.869935185732843
1181 2.6524338161480028 -0.6732835929440389 -1.0991199142590315
3145 -15.496205271649194 -7.576057767268208 8.632222136951357
1056 -0.08191498594917904 -15.106192693524559 -22.175220285707052
6037 -0.7597783103981661 -10.234362996191699 -14.473801334492418
1059 21.74756552710742 -16.282978802040034 -3.31591430726133
6036 1.5570487403922257 -26.284595411193912 -33.83319544779628
6035 2.896006730431464 -1.0063970467959067 8.21223216499335
1183 -24.44330985820226 18.63859356351543 0.19832473057409122
1055 -7.051777044599637 -4.035867283471604 -1.225511342888087
1054 -6.316415613325327 14.924460748554578 -7.571730058609384
1182 24.973305633572178 -3.4074386455916756 31.059887937336892
4207 -12.2957294501126 -26.786269851046175 31.675551076433127
1762 2.662461731264238 19.196818731207266 -16.87079108613594
1057 9.757710204178974 -9.582607112468557 7.7956808491101395
1060 -6.9784609200103445 6.970390263515525 9.759510534152556
1058 -9.61179253554604 -9.642879177630386 -10.078766441624888
3906 30.968012386266626 -10.395299394928832 -13.223518070328389
1297 -3.102040441909036 -4.91437685428283 12.741587310237573
5725 9.868175974468333 29.21333016242103 11.815144553755642
4206 5.571776859518718 17.91602907121878 5.866486252694329
4205 2.0327768952635594 8.228281674465482 3.73399852490998
4204 -1.6867335083188435 0.23321188326829537 5.728849831954572
1760 0.5770358380180289 1.5476990346880362 -5.606475077635388
1299 5.643041565927938 -8.209098911337875 16.470143925675913
1300 19.904186017467246 -4.065746695477694 -10.554783303691478
1298 -1.7356901271895466 -2.9593952545555675 -2.1193263468044323
5727 -50.167912173201714 -3.1454679461812844 -25.326419995541396
5728 -18.55106546372048 37.26255138800203 -14.351975327133838
5726 -7.260279901760676 -7.167138441702606 -2.4601323610231214
1302 -4.7755411249073925 2.113636355873937 -7.384089209819022
1303 -7.235672683072016 41.460509027250644 -15.023633550179712
1301 5.2357234686072145 7.523622766727922 1.8601569092314578
1471 -11.198753401194027 6.585043258305888 3.643820286436837
1470 10.111324173718808 -4.437795684600084 6.304728298427305
1469 10.067265988927709 -6.598618402902142 -2.75478308947756
1468 9.719478756830894 20.958821727818062 -39.868009910907844
1061 5.3525286882580785 -10.86213476271074 -5.4835006378229885
1062 -19.91875988402512 -0.3338584297141692 9.260977713744097
1305 7.899159068662426 -3.7706923791049434 23.501885436856504
1474 -0.8607305050802011 -3.503862770226658 17.697076885427123
1304 0.6896387305370543 3.1356398152909706 -1.6729491844813416
1473 8.58321509282403 -27.594099512967183 -20.638120803575795
4045 19.613911008697457 9.426675590918858 -5.248078478436761
4449 6.628859921347796 1.6208882472760526 9.157950231438104
4453 23.42092877559732 -15.360027854196542 -2.838656115312025
3905 4.338881504820901 -3.4355182250088165 -3.7359477286666114
1472 3.6934036794756233 4.566218596811874 1.7411694372536104
4447 25.058151389803893 -14.20332691066888 21.412649790865064
4448 -0.23312012425987352 4.980193776330434 -11.369680233495892
4450 4.993604746163731 -16.98876233699001 -12.696799168696087
4454 1.262507481614257 -4.731870386092357 -4.700009598199123
1475 -3.5319325755487574 0.9366313247221443 -1.2253303264040238
1476 -17.770663257447875 -4.22880171130461 -0.7244367120163547
4451 -2.717925228706999 -2.64669243595246 -0.4194572721166121
4455 31.06274699383815 -31.34539321189547 0.7787003090072615
4452 4.312338541791932 1.165064357396212 -40.162442191587566
6038 -7.865770274021895 6.311213551466238 -1.950369250575784
6039 -8.013274506397712 8.834462032457918 -11.583269659247165
4048 8.074974008571646 -35.13905362563315 -1.247581118645251
1188 -11.479015769498433 3.2633241248200964 27.645906903508987
1187 1.0876778635865143 -4.7802049500663735 4.728440499836652
3898 0.5834640414301975 1.3257246403009815 4.564945444610959
4467 -1.6088838363363358 6.585254025732605 17.388453271204288
2715 2.8574756302254096 -2.384790219148288 3.5108822854874715
505 10.22606775077042 17.985990649129246 -33.27604510810848
507 21.20794000748505 -34.567158333851616 11.68583432769178
1276 -23.369585837428836 -8.87725079112789 34.42389347699296
1274 -3.029951669895287 -4.376504187516015 3.5058284675240627
1273 10.545290783231449 33.0519720790384 -6.429943947406118
1272 -13.609662845973945 6.2120651897269585 1.1351017707641147
1271 -2.494347212801886 -0.4931668965706146 -5.962828956628439
4471 -2.510129835920334 -7.484716356379162 -11.3815923179883
4044 -18.782802457980644 5.707374823321567 -29.799179977915795
1857 7.947766026447727 -15.541009172495416 18.467946370936627
2061 -24.91711297638557 -6.384472214395287 -35.90210386647088
1277 -6.056232361301217 -1.0636158069520867 -3.2788457259532904
3595 33.41365388086 4.058137044174156 -2.1334451956082705
3598 15.130319716583049 13.833433399813682 1.6370154696587529
160 -25.37715211936823 34.16634317371568 -5.8383708602853375
158 0.19577237996980865 5.964134562221176 2.562100111505805
5406 42.32191304001884 24.318107019180424 0.15348015789574107
3792 -12.749932235267757 7.765186493434548 20.750930582047754
4395 -14.906271839943136 4.221338507652564 -5.91988259929233
509 -0.3897717459382108 5.333380031991873 2.728036606590528
6193 11.494803751611009 -27.101233772797453 -7.705671068956821
5493 18.92045796967962 27.001318819072605 33.81349877161008
5492 -6.382433524188036 -0.7876526268898312 3.36117745535996
5494 -13.439279902744584 -8.415528987360778 -3.528958750738978
3222 2.5616730210004 -10.24125301825501 -10.672302146566576
159 7.584926064772544 7.9517478196545035 -19.715630401636215
6223 15.585664336097642 14.227260035802828 4.635377183396518
3790 16.080280094806422 8.98642061963545 -0.1657223658579404
4393 6.990718000171886 0.9753783715038288 4.756960611792646
3796 9.972663460295843 0.2252666806510376 7.847224828030307
3793 3.8701983971111553 -1.7903312709362802 -17.1112994606936
3791 0.12555214356462224 0.1342781099833265 2.3936031857200764
506 -1.57092914072213 -1.775781304272421 1.1055844798346528
5491 -42.83585926731959 31.780063673773995 -1.8723603026977977
3795 5.177035094732863 -7.198945969204644 15.495033824171726
3798 -20.62470162167686 21.391830718848503 9.56607176299694
1984 23.624448060666683 -6.800925785263131 -4.446785015083315
1983 19.68521434350221 -15.39693784583969 -17.535447258239348
3379 -0.7552247976476734 1.9681803707814192 -4.761891189864056
1986 -15.752326843431597 13.11062804255781 -1.7725033785380901
1982 0.7042833034113823 6.339849977602274 -1.081253158037084
1270 11.443154680146613 -11.663348265387867 34.34114661427152
3381 -1.672591851263842 -12.513601546212668 14.382788878577948
3380 -5.345403791863934 3.3357662639912533 -6.599437640229108
3377 -2.504080004238774 -0.43933275245714054 3.261780004330057
3794 6.044714757120761 3.6412003692909414 -5.60813136572931
3797 3.196747388039274 -1.3636824598837656 -2.9366766534999758
1987 -41.167049573466635 20.202468658239695 -16.465539138198793
1985 -3.2166315728095203 -7.888410965289673 -1.2736574946029566
6225 -12.307000852249462 8.556020142638182 10.211284549251237
6224 -0.6813340735786059 1.1472156783864764 -0.5575544694822616
6094 -12.185695444245773 -7.805322515334622 -5.025427513354173
6097 19.067732139226365 -7.599730280696929 8.210360777539467
6096 5.909005871760643 -0.50233080945052 -13.836885217508502
6095 3.052385917337209 -6.13051300642969 3.0170474718338114
6220 10.262507366470103 -14.334534810341301 8.196233734697616
511 -18.06318044139214 38.927082340777375 -3.893732835756168
4155 -3.0926666749749154 17.990021207513436 -14.944346405760296
3383 -1.3844164130901424 -2.0567211420140956 -4.500180014281286
6221 9.802318012253911 -2.4307252520263 -4.586226339101061
1981 11.876209217764684 13.142131997382856 -15.830289459885151
6227 2.0156708488531323 1.576875510439451 -0.7971754249803026
1153 2.3991946505077832 -5.62959007765091 37.5937826840821
1158 -42.5021174791325 -24.069308663063858 -17.772188268075755
1156 1.2316421399248598 -15.908231155630347 -15.90680332162505
1988 -0.853038238540341 8.244723197802415 -8.321165813682644
1989 -10.954805356094424 13.653475416611288 -9.83296315597702
1155 17.536073683310054 -38.178971906245266 -1.4769855341848719
1154 -2.820755304831435 -7.039255599945123 -1.250289568848251
6100 25.886346823135327 -5.464038545256391 -4.766327458674334
6101 1.7682706564331785 9.227120453504384 -3.1206813286209765
999 44.60344528440025 -3.3520848470162212 -10.19195857036112
998 2.995738818427498 -0.5998066399421738 -4.985666570718196
1157 3.570539198949558 -6.349248944244368 -0.143116540689106
1159 22.734287712506575 7.857682288801258 35.60837155418575
1160 -1.6086199648750914 0.8317424060825491 -9.198169173224883
1161 6.579170321828808 10.965725008390992 -12.247421487800299
5953 37.68895472272267 -20.746418620524608 7.597894416421023
6228 1.9815258445974075 19.52321974342298 -9.55462056188984
5958 22.95726429290111 -3.7418499869595037 9.855865124440259
6098 -3.761677922760315 0.5870805067134645 2.744811894561662
6099 -13.086922040068389 -24.00531701285939 9.826824981857332
5951 2.6533652705815807 10.918108627143827 -3.472459877029014
6102 -5.024697804092301 0.8881324011583515 3.22806553685196
5954 -1.2743197384424183 3.3930548787684067 -4.050577601256731
1969 -16.448120868159634 16.796585475779047 25.802863975527064
5957 1.2407524078375352 4.124976479956925 -4.198264869652237
1968 17.174425927488 -0.8324644757340366 18.889561507927226
1971 -3.3222782711132255 -23.937289670697172 -11.763229027960891
1967 7.160375237250386 -0.8317278637918921 6.392549130744049
1970 0.4955144194172049 -5.418148387435921 2.582741997906511
1964 5.18010774093367 -1.3036853088628424 -0.779426937388002
1965 11.42000139615201 -8.831455262927495 -10.871433064588256
1966 -0.8846947030267535 -6.5612171927369 15.90215017980547
1083 24.104917294270244 -1.7219821842245489 -7.482821046078957
5952 14.415222142428348 15.99366199142598 8.516889568815468
5955 -8.203391253907284 -14.462034264002812 45.88105958107929
5956 -7.6646089119541205 -26.458738230270725 -6.950272273145434
5950 -21.019241919431558 -3.725004711744771 2.2466699993986583
4158 2.178239376251278 -16.16855138716376 1.1797764045447552
1084 10.485500050021644 -9.522729773805596 33.59479447501805
4154 1.1991486043971729 4.379968067785891 6.702860775324199
4157 -5.59225845963839 -6.250205679265786 -0.04273127118854337
3376 -24.353205319818528 7.031956556829806 9.775550625862905
213 -5.224079541256572 15.667989575470394 15.601204711834828
209 11.82748004371121 0.5237391633942926 2.8905693917360162
6170 4.393043880391954 0.15790407276593652 -5.833635767608027
6171 -24.005402227489657 -2.189032768315719 8.430456341449654
6172 9.134682165967243 17.015735561526242 -9.921430040722885
1429 -6.1832468802235026 9.547932519243744 -0.43479098718826176
4152 3.2678351581114984 -9.96548214212811 -1.6180789701026352
4150 1.6710253989154773 -7.4073534069817395 -7.156467260448805
2101 -16.497908965418535 -4.118914663056465 -10.646929322308756
4151 -4.268896464699325 2.7647625537349665 3.51820617730094
3662 -1.851439002287779 0.22642751681144602 -3.1794637572904714
1371 3.8088052088688253 11.360958899394227 -2.4225741114010324
1370 5.974337643629941 5.200145197045951 -0.26448799237659865
3663 -4.892078876949116 24.6597317703375 5.590603821630715
994 14.269985545898107 23.59716683302083 13.560696905818212
3378 -3.1402117885541543 -23.62194897743236 -27.63006689469419
1082 -2.6159401968748894 -0.30123240658751904 -10.871843019778847
3384 -18.01334059603376 4.343316744267012 5.219729807908243
4156 13.29560537631075 13.749521788624403 -9.230681393591096
3586 14.356304058583651 -8.154193140805102 7.311019120563476
3585 29.577786759057435 -27.40792302668934 -13.535975170341283
3584 -2.4481096508878144 4.854165253523453 -0.30557970516513905
993 -10.240391529105077 -15.096702182404028 9.895375113218925
2098 -10.559755059644438 10.100512906810085 -2.605401743739457
2099 0.21696358979409275 -2.276440481641463 -4.717278646676771
5988 -7.598805310564252 -5.08066721986482 0.4011779283012559
2100 1.704436547472346 24.09030424673594 -22.346074975677027
5986 -6.804354830810143 20.920011982990317 -10.274760126216707
5994 -39.033775888053036 37.83658658705076 1.6942308081325428
5989 11.196112395565297 -18.647852480429602 11.716192060981298
5987 1.4589391091187651 -7.51562865889105 1.19962742580824
1081 6.529694449831861 1.1584213208192273 -4.243269725745603
1087 14.938514342066577 -22.06017059340175 3.9335288756863753
1085 -1.1662191375572728 -0.6072019574474137 -0.4235511050002364
214 -10.562927720891693 22.851577156352707 -11.391654017141349
5937 9.938562467639848 -21.189136832630332 -0.6726761390528365
5935 -11.760914846746878 21.19242056992484 19.530927528427945
991 -6.114050199073259 8.17959433864918 2.736023942740945
992 7.791134392500803 12.119276659768317 -0.4252289601009545
4153 -4.243355013714617 -1.1166851840437315 -14.337719971937577
1086 -17.440262837145408 -16.567981604914515 -22.10818383005883
3589 -18.85757132868028 1.0262581443680765 -32.60362864870157
5934 -15.376834232176407 8.54757096211912 3.8266342375457065
212 9.396041509720982 -1.7183867449147598 -14.239227988102767
3587 -11.82556136863157 0.5141796151602498 3.022196210456015
6167 1.424070367682477 3.011658758623819 3.640268343565736
997 -12.873532298057986 -11.396058536461645 -7.27438168752583
995 -5.02741932595175 3.4097698188693166 -4.936968991541651
996 -6.801072618359494 -25.002591810502437 12.088690097515089
2619 19.96013032087271 11.686403538754549 3.9075607967263974
2618 4.325424142212871 -6.754276074622381 -7.562826565374238
6166 31.242650280174544 6.7231528508049525 -13.587616965861375
1599 9.064395704800226 -2.7192942227033567 10.165133174709476
3185 3.061851342029068 -3.183618144517705 -1.4519448360892806
2617 14.425692164093899 19.10214491294272 16.581262787362714
2615 -4.10357476930799 1.88648489974501 5.717949804229584
3182 -0.7072529126063155 6.950031416358862 -3.4221056745154232
2616 -14.080334064445667 0.28145938482526484 0.9405441876791217
1598 -4.5434715801691015 1.1264574305220907 -4.382015057440465
1594 6.631231626420567 2.9027349471723176 -6.316513689316215
1595 -0.12633435293798917 -0.8149864243367314 4.890901857983157
1597 4.355877803013185 23.38989677852644 -6.913872550030927
2614 -40.54458595877932 13.301886223579443 14.369192662674578
1375 -1.560706544291837 5.7500329739702485 -4.027274941901057
1601 -0.5941052203216304 7.540146152749254 1.6356013795150175
2613 11.480780872964042 22.5026347510885 -8.745456591089116
1376 -2.0992130649386405 -0.09978938323163382 2.2227467459452614
1373 5.908168507918641 -1.627058358509769 6.2761469779931405
1088 -1.9999362710016082 1.3527467201958319 -0.8566195367514746
1596 10.920779027243697 7.682136535584493 -24.009233398913775
2612 4.354221668331755 -3.24268831674033 6.993594291686072
4552 6.703179201313862 -2.8996949789578133 5.931460811726712
5991 20.342579256553474 17.97960656650773 15.835304081436965
4546 -29.080347657077464 -10.72309151289864 30.04603134733977
4551 -6.305963203110498 3.882326520241109 6.164771237161553
1377 -5.578205326860133 15.516000195813902 11.549794983409438
5933 -4.882143191575427 1.3391751007397192 -5.78311144715531
5938 -11.862675361953178 0.8795544946976235 15.938598005063135
5936 3.474479738037638 4.912386639984255 2.2530196140556593
5993 -4.847337922631728 -2.3905450537669064 0.26997436285441867
5932 -11.450465414784937 -10.783921191706014 42.469273569373215
2611 22.542173764240545 -32.307414674040785 24.939784330167114
1016 -2.4995625703119373 -4.099797012692241 5.776288991080453
1017 43.419979729739715 -26.894396013259477 -4.994606297230541
3183 -27.42514045043055 7.265795311759731 -11.404072806997403
5990 -4.4469035205768925 -3.5232672580539264 5.187530451750835
5992 4.972899160884876 3.9703180178187667 -2.6735433894424845
3591 -12.467911784532474 12.182262871999672 5.322496538905397
1374 -16.121890094012173 6.602892132948765 -11.918279022267935
4549 6.279810954511575 25.243376471152555 -22.999797410929336
5939 0.5665606876552752 -8.229315799654172 -4.800882335369703
5940 -12.039759906519558 4.674939283726984 8.206636057994364
3590 0.7898917179598149 1.0208659669834392 5.449682992975897
216 15.068560077981276 -29.618941620556825 -18.446237916002662
1389 -10.876517185045657 -26.687768275447333 -12.046221646564137
4548 13.473626180035671 11.298304210005673 -2.244422230980025
4547 4.86541260640439 -2.7112738855981973 4.5973247962525905
1387 -15.481339164961025 20.701061915832383 17.604890167660372
1393 -40.24208191659871 -6.269560540188919 -2.254696762966971
1391 -0.34409818119254076 -1.4039625885929619 -3.580907589112593
1388 2.854750101159736 -0.970479256843386 -8.035011396658877
1394 1.9602570950850517 -4.367716354182878 -3.6626309205028855
4550 12.146567903480756 5.869018736078663 -4.092972679259924
1395 14.21741433302729 6.2088885593202665 21.229272565732693
4553 -1.9225897870153799 2.0557277682174075 4.664946913254086
4554 20.511853973841987 4.248882394344169 18.11718527209001
215 2.0125850178624276 6.665393915790498 -1.5681758275828706
1089 -26.685376484540082 5.643210207240777 -6.868402421768875
3184 -4.144720219272647 -14.220906002586256 16.113625318341608
3088 -8.015151660595945 14.86157470864572 -15.260199221588216
952 -4.080396913981514 -17.394376564901982 -8.782758573574048
951 -8.213182507238672 -20.83429364802196 -0.4472873097698937
950 1.5979191598615363 -3.8517726305510775 -4.1536914405201015
2644 16.204587938398774 20.55979500163256 -0.8738649006020441
620 1.3520236528820153 -2.19558279358517 -1.8638894210906594
4943 -0.2395558638985388 5.305916170275824 -4.235590644157217
4950 -11.163130219115676 -5.336773291359118 22.23912438764935
2639 -7.402910079187341 -2.296259654127405 -8.1563030110218
2724 16.238415276226593 49.62025430711743 -30.021443804846527
2725 12.812904655754147 -38.32986968596484 -7.069110717770318
2723 -0.24836940408732872 -8.324949298149836 1.8816281471705052
2638 -8.534316282929334 -10.292811188465429 -3.584667523761484
2640 -7.4677379793124095 -4.4036694513534895 8.284896947072587
2720 1.037822303803663 7.992138230231509 0.32267662331278385
2726 -3.2349503883266126 -3.945894310908679 0.3061560232853595
3900 0.9776935583025183 -7.374144241132679 24.6791959947319
3640 -17.874777485479783 -18.950546843298042 10.343196282773542
953 0.34647078169644985 1.1839098385615263 1.4300227094233018
4723 -5.057526437166377 0.8315260113948226 -5.5059834083949815
1327 -40.09070876590376 11.111635969388791 -17.247609456929155
2642 -4.113688430820184 -7.664902277821514 3.9728966456016113
4702 13.343850526252893 16.287991582290235 0.5897006559024134
4699 -2.462252579073471 5.104904698482141 24.928989670383963
4701 41.673932552378126 -15.828746622556439 -6.867971335156359
4700 8.689389904766477 -2.512697399884669 3.925650116485523
737 -2.3827200501441017 7.2626262024669614 -0.4856014792070166
1324 24.48469698973787 1.7908200979977515 22.51370035258226
1325 5.571931016005467 -1.4003312356193842 -1.7968225682935737
1326 -6.20075655312971 9.672284935892637 12.400842522250901
2645 -1.2494795733517097 1.181479287959044 4.576707129134152
619 -9.970453440865029 -12.989220291027546 23.785595810382205
617 4.7913135696410425 0.423651238484295 -1.9261980871862887
4947 -10.673953846513475 -10.246625045836664 -17.5961334487976
4949 0.834498638986444 -2.9134006597914244 0.32941305695212736
4948 -57.396307272140014 -13.270821760625482 27.727721755443703
825 11.320821117803314 -0.19729787019003853 -8.280179817044095
4946 0.9334221156001168 -1.0371423593242668 4.19337900743356
621 -1.4103649608520346 14.476941288925177 -5.5009898011332945
613 5.236327303164962 -7.854937329556204 -3.0540728696953376
824 -2.07973722112595 -6.402784547475362 -0.28419768858404176
822 -15.082899703975759 -2.4307818005470003 2.1764042127820926
821 5.133562119610047 1.0703430629966832 9.227626041916924
820 -13.907359372622834 14.63134256115496 15.529803790841077
5782 5.336160619213479 8.944482070263614 17.859050094377515
2781 -5.3964737576611626 -9.967549324760466 15.04750645736333
828 3.116804399196828 -0.19104043737216636 -1.7681192129846433
827 6.931412515231063 -0.45599309066104327 -6.542870986936612
826 -10.795063875043363 -3.9732500403323705 22.730165642317875
616 -42.836024303140945 12.577085053151949 9.674555424389798
5785 -10.542642209165658 -12.647447793697154 20.428743159082373
5784 -7.023493920881288 14.94753405274915 5.912057130972745
823 -7.504177440085919 16.071325197837243 11.800083939123159
2721 7.001246499881214 -2.862388267146262 -2.5002421760193583
2722 5.382552642914655 -2.3627466299231257 -11.026382337148869
1704 7.216306741953558 -26.533763711711558 5.10869352524526
1707 16.067811319076753 -2.571331479847455 31.02500607007809
1708 10.28204727568794 17.161547207675437 5.884296035884938
3033 15.318958705236996 -19.793978551120702 -18.54696706102318
3032 -5.350140759849287 5.776715421819722 -4.361625145735967
3030 10.13757064773522 -0.38345074676387897 -6.800679274909998
3031 -2.638734201169214 -10.565286226297713 -14.116703949560872
2727 -13.691088179700252 11.444314384269672 -16.625833125479772
3644 1.3151168638613009 2.715464952054242 -0.2914728833952009
3645 28.520909115016703 2.596675247939297 17.92209369679633
3029 -1.0062130744339763 3.0703628907233194 -6.469105608685681
3027 13.800471486188096 3.617823721534881 13.202816865660854
3026 -2.2686312711037564 3.8404189113956173 5.271472776853579
1710 -6.825838892006827 8.713655975819396 -5.077188082468699
1709 -1.48275144473111 6.608308417324122 1.684228686774178
5787 -4.898632569999975 22.03586801565546 21.36750113959829
1705 4.225715529464878 17.898747677671604 10.928474919565835
2646 -32.69652006198004 12.437060058123828 25.968252860685283
1702 12.834318887441883 13.444212270799174 14.673872262354678
1703 6.0002993061133285 1.9534858087762366 -6.094796296559571
1706 1.35592174896391 -0.052540936348423384 0.03299406977842019
5783 1.5488764323256854 -0.967574141834085 -2.393404157404414
5786 7.638587310154832 1.3138975824462265 0.26825663458825627
954 7.536099467499465 22.58324837864547 3.6598532348415524
5780 0.1578101138595709 -5.335443913081543 -4.616568397890674
5779 6.15388381020334 -4.386932483510466 4.21361759577218
5781 7.702506626397383 5.236704705633964 11.300891507791697
2126 3.1039822567158533 6.5088577339794655 -6.846970976945678
2127 13.24266764500923 5.12351961415052 -1.1392542109248112
2128 -26.96327319373114 38.69811383258101 19.817110281602833
2129 4.5824453268008805 -1.8714400802409317 -7.862658867066306
2132 4.945846471101603 0.11129530019218725 -4.742761471572266
2131 -1.7655351469101317 22.469936189701738 -20.865660385169356
2130 -21.234445299988547 -2.1022441925787185 19.33423310735716
2133 4.821694246080176 -19.277975597634622 -11.928553586447482
614 -1.0768359845091453 2.421769223810152 -3.84692227987334
2125 1.5081179093109323 34.50410567302087 5.247461720163032
615 -9.464571829470218 -9.458307350506995 16.38376268946462
649 -1.4016918109997472 23.193641071202155 17.338962300394186
651 7.126550277466988 22.92165764373855 -31.54321923122916
76 22.096790747524622 -0.29663195268836 -13.619775382490658
364 21.847452705106075 -11.44847771997164 -1.7145212811382273
2058 2.7818573944836267 -9.77465043621409 -25.886512542244283
126 -36.54344685517068 18.434244302472774 2.0081194505889175
732 5.5963450142962134 1.4614594567866768 1.3975559734971357
730 -4.434029503625379 15.193280425047163 2.476827338703611
731 -0.08922061364276077 1.7535569124870658 -4.972884117372091
733 -4.1892390836687285 7.595216852672385 -33.988169909664904
734 -4.3618383097925095 5.955781236006912 -0.9214032209107699
650 2.4712860116531825 3.727288008820354 -1.2833314207516
652 18.25448330893278 -16.110157587825373 2.2084180695060307
2695 9.394129545774755 6.534491855020636 -3.390148121167696
846 -9.506674612945513 10.781312344280773 14.681242587703206
75 2.531430410821023 -22.525191312225086 -1.0140070063957347
5448 -0.9256147652684915 14.347316394611259 2.147086645483124
5447 0.45730133762540426 5.572465608432158 -2.767510007338
5202 0.8293577335152498 -1.0861882635642266 -10.787955489090082
3747 21.782801916688285 -17.585433228083776 -8.909418633471521
366 1.6167413392914434 -11.096472478993268 -48.975624367153785
5849 0.8939101466549688 -0.31029922699361323 3.5594051664037507
5850 -13.783895628130729 7.510232676622229 -35.144751718902285
4049 -4.075711464126381 1.92670506689297 0.334586402712086
4050 -14.708412600124467 -17.71128366618358 19.042758618586383
4046 0.3471418703663314 -1.2083842729114094 -2.787902432968849
4043 -6.08088067457684 -6.661786479742586 1.8024958706328118
4466 6.693672460023833 -0.11112522547584698 -4.283410580548374
1858 26.592443347455568 -20.091800165769342 -1.4445007296222823
2716 -35.6926196721465 18.435442430596922 7.920162447446048
4469 -5.879152228853105 -0.982217718285847 3.339317639282931
3028 -14.466029282289929 16.278919685746697 -19.00747076670748
3025 -3.7681255158279194 -3.9433098586097706 -33.128959481838145
5553 21.530713906972135 6.185386175571694 -3.5283469584284406
1851 2.0030912305464565 13.281761326821869 -17.98185575490744
4042 13.703118041279142 -30.15740756295084 -13.3854459011998
4047 5.401352156262973 -17.181935263949057 6.875690706494408
81 20.05136367968819 15.191309138462634 4.0336550921875265
5201 4.710568975836256 1.7425897109904367 -8.280215291870121
2501 0.5861013403800988 4.530544372220902 -1.0670392636338253
3745 6.31405118577252 -13.505206937709202 -0.1483193085811653
1856 -1.0115701626439328 0.5134594193447787 7.663413900570791
4465 -17.61086859725067 7.375347625172526 -0.06168972321334925
2717 5.092441736285333 4.814562390594788 -2.4061329369495374
2712 -27.528602280944074 -19.278695243588693 -10.774149860741419
1853 -2.2916288583136457 -1.8070949302089963 -1.5517408258683634
5452 6.662503542510699 -30.761247931145657 -10.91031512061981
5199 5.675981268624772 -13.875020365485677 14.099532677423397
362 -7.238618726470403 2.375694560303482 4.382753113094405
363 -5.055131622462114 -11.988990617630593 24.296815382363345
1859 6.747954729876429 1.5830347371867979 7.762128617434123
2710 -23.21572545288638 -12.428948650137341 20.25479222320042
2053 11.36516099091577 1.76777690754427 23.152759816946855
2714 -0.42305484633232776 1.2155821895457126 3.6858383768319416
2711 0.6687563976571405 -2.9853368023028497 6.556935063000887
4470 -0.3632263470092095 -1.1970447109638518 -18.269623726931062
2713 36.6234567670185 -7.990388578056221 1.0233900559188416
2931 8.929373263322477 -0.6497021990714233 3.7170127387067176
3075 2.01202508628995 0.48234304532748296 -24.492223258466954
2928 22.112461690595186 -14.574982101708684 12.546066383045776
2929 14.773916525639686 -9.310590161206584 -23.965969036723877
2927 -5.188922078784143 -8.666124138014922 3.545979765703945
2933 -0.6067200567777188 5.42370802320843 -3.169542011649038
2926 -21.58035963141475 14.844969858089136 -2.253437850274549
2718 12.669856868819506 -7.894107230056118 -7.822532617363027
2060 7.061347863515525 -1.7943376298511278 1.6588347127417584
2930 1.5608877533585843 -5.984996062417034 2.46815933752862
2934 -23.99334031113959 1.9519314111379684 6.227883409034366
2932 17.168782604872703 -0.9683746625705895 -7.5354875849329295
2055 -5.865144490470593 15.478348854657236 -1.6740100364678803
2059 -43.33361921608214 23.019240231109954 5.038368080107748
2057 0.5362142915569793 2.949111682073595 2.0566636519832797
2056 -15.464620082971063 -3.1489038744270386 7.748223558980474
5848 -4.279130477271851 6.029324545004083 -22.66851452649267
2502 4.657612965915885 -5.161753630558667 5.856437343435216
5844 -8.960952553896805 2.909667780996163 -17.78462065958584
5842 3.572281782716477 9.64429963893248 -1.88042356218738
5843 1.3801821531552125 7.0686125305768694 -9.89328786991745
5845 -4.0352491075578945 14.069079621523517 -16.270125069439235
451 -6.019887367418879 14.655430087154333 2.878745714699323
2054 -9.85283462038549 -1.2342873575772904 3.6297899987582665
456 11.502524423885996 13.005235131856688 -2.9102569033128898
457 31.787675267783488 2.4281553317827247 12.35323292521161
452 -3.5778395829373184 -13.904141946058134 -1.7766303517739146
454 7.901857570236458 1.48310463721804 -19.57326056950871
455 -2.633322064008874 -1.5283176873381217 0.49030594881150885
453 17.793771007632536 -4.715720603583257 15.025797071150253
5200 3.781104186295167 25.19609214585698 -12.280603789154192
5198 -3.656715279229548 -7.9359591466452795 1.6123801274523752
5846 5.188818007411571 -1.5433257843134596 4.039231449714831
5197 7.890329105984141 -4.2001154645481975 -12.061647173776356
5195 0.3919911567264407 2.0006176566640854 4.974486368730238
5194 -11.106761361229532 12.21765911442369 2.771727818574034
5196 -9.293699516565328 15.062163423937726 -25.88991181213794
458 2.1504438713928202 7.902683247854333 7.064407172930237
459 -4.6654643371840425 -28.264893924906175 -1.2980912473517523
2016 3.7864478249313938 22.09251618468067 11.176552775523271
73 -23.252483533680756 -2.3091739527867228 -14.30855270089053
80 -0.347091256876468 0.9831790290671624 0.8594534838410453
5847 -33.40055823836464 1.7030889201940618 4.768506101505667
78 19.123691289549935 -10.032439543760264 -10.303160530159497
77 7.572222701204764 -5.839236890604809 4.562480803843289
74 -1.2736437102338283 8.602640222251472 -8.038736406250372
79 7.417464029409521 26.12923995620568 15.72891166211711
2015 -5.975763262971857 -3.4084674178423415 3.077783354080595
2012 -1.423595711279866 -2.4230885548343917 -5.93832247332332
2013 -36.529119176630516 5.571996452303034 -3.049238268415036
2010 12.9786988790039 -13.35079177150494 -3.5300135115222213
2009 0.778645158469993 8.257229364704875 -0.3278333183005635
2014 -7.51235023897569 -6.4076351633980995 3.2082130972606104
3751 45.02126023446124 -10.227846799687885 7.200600088918478
3752 -0.24486534339459015 -1.6707027212954528 -2.634058014095588
3749 2.817619080779603 5.572635684580819 -3.890283037950224
90 -16.960712533733762 18.22330184189225 -5.49282469922352
1862 1.8027580560895329 1.9532197990417974 -6.261374107766139
2008 -10.72842105174234 -9.537001741081742 11.892417335093556
89 0.6122948100815078 -0.7354282484420441 1.7098932929780657
3750 14.448423756433375 26.971502491240173 -7.56968687500598
3753 -5.502502029726316 -4.386271122628118 17.603745078816914
1861 -0.29038695354182575 0.23743441862539053 34.018048449671284
2011 36.536459222271944 27.514341418284197 18.981454379111547
5449 1.1998842946426327 13.00163470500577 -17.017084911906334
87 -2.8633924829071558 -8.899133955725858 18.141947157315013
4908 26.63583204226211 -9.189958681504784 -35.528298539853544
4831 9.544995304636442 8.871814833549722 22.83410777425452
4829 -2.856745841909645 8.46853528716322 4.388013823159728
5446 -6.95986099692048 -4.5768307901681045 5.0722213541744665
4907 -3.86122044955713 4.815618838334399 -1.1414545684945494
4197 13.13195469081454 -0.24676275402856426 6.441398260030616
4417 -5.557366707016094 4.393328234517123 14.416996244737161
4418 -1.7061347080513634 0.7832114837450374 -1.328672574368248
4415 -3.0606951380235716 2.121081446724978 4.968711868836759
4416 -1.168790237103127 0.44266005882082815 0.8170882492260366
3547 -10.667973051580384 -8.523740421630428 3.2265958649964097
1005 -9.853678410776467 -24.69566509850968 -10.487639085684874
4096 -3.8078307590499376 11.855238125894287 20.015655187558064
1963 7.42174781623733 -0.17855576590984065 -14.913954679963295
4195 -6.228701289652621 -14.213473530851944 -1.828090411323142
1860 11.856532275670999 12.243921733907106 16.407156653603305
1863 4.511835354002363 0.7633873124387085 27.46202300474641
84 -0.015342474186050685 -1.344918103062081 -11.773931122137489
4825 -1.7980038460791568 8.551155421833547 -5.479852631759874
82 18.184208436514293 7.941523903896033 -14.590151356959371
1866 1.6482016079616022 8.693223084337022 8.6902668859401
4826 -7.100413689268664 0.9220239245545455 -0.5530894765750521
4827 1.8822203251435328 9.548333932275614 23.707413946203467
88 -10.532258782930324 -19.157131806713736 -18.333584360872567
1865 3.4481961579826654 -4.858875006231175 3.300484882232446
4411 3.123011776826349 -8.830141661950853 3.0266988081868735
4911 16.063638805461355 5.829484794278793 25.21233103697909
4414 2.177109589691384 -9.998802174169235 -9.423340860553397
4912 -3.1268738242476326 0.6863216978006202 10.388920603234567
4910 -1.4936216284394046 -0.4465536095393793 -3.647586910842004
4412 -2.735589286369036 3.7816417406629497 4.646932260267717
2656 1.4143853520494352 1.288579605972974 -1.9172030544545842
4413 -1.6108742165044259 7.123698255082306 0.6425178184111939
4201 -0.8537276864050741 -0.8647879424922885 36.118392539797526
4200 24.010606420374863 13.052126767175828 10.029926189991
2661 33.96436203056702 16.051926382674463 11.557366404325553
4198 -1.9047725315851673 -7.096070247166783 -13.6457328286639
1663 -14.327354345873747 -17.791625134218382 18.05046738425333
1662 -19.101887461011437 1.2667397288072975 0.28385878632170175
4202 6.052639629577919 9.059086199445458 -3.6812633470102227
4196 3.5857939541139747 1.4005299485635998 3.535177283720464
1659 1.336063998158702 -4.287500231868572 17.941972788492233
4913 -1.5551892317258438 -4.659618963941876 4.985253523497869
4199 5.5738178293056455 -7.955747940347232 2.273502961753756
1657 7.392183683146188 -5.155769835524258 -31.06408593385894
1661 -7.048056843330589 4.436845023572946 -3.2768501729203128
1664 0.2576716235816126 -5.305663466801078 8.742882423198585
4914 -22.395447255623964 2.472700996572348 9.287602001814896
1665 -16.418683297959504 -11.71077781308089 -17.41665082923432
2601 -8.010716012033564 -2.167549648860776 5.084613545421196
1658 -3.304480321393575 1.4789090991484843 -0.6695571835472591
1660 8.534488436545818 -15.82131364166709 -3.2246898528146777
2600 4.592347917739134 -0.184528798367237 5.6575238337202025
86 -1.9525840833020993 0.44343538780603986 -4.406444397127824
2598 -6.840858294262444 -22.46925564437932 -23.293118246418533
2597 1.5256375592815914 -1.44265447537263 -11.03314494434969
2599 -9.212279689536958 13.543548473350928 -15.193261918291087
2594 9.568244215577714 3.374847146665048 -0.8431457413171245
83 -4.975618547748612 0.9605099198316952 1.506081432016189
2596 23.164733332051192 13.466943236499523 29.2030892570196
1864 8.154186838191718 -15.249577009623568 -18.269288459462008
2593 -35.02366746253451 -13.517706927514885 11.7512538164321
2595 -20.775689030036173 -12.178367400773638 -13.506588313128155
2199 -3.623294331294813 -16.47935077889251 -26.791427245887334
2197 -16.16860868132818 -8.389297128779559 -41.90066890759561
2202 50.30373990707802 -9.706504706188786 -32.229570165192754
2200 3.326178171705632 20.404470483691746 -13.295187433871025
2198 -3.3175490078727377 2.048200462737598 -6.857958701874353
2203 -21.29020458057635 -0.7566096126382004 -9.935880114377682
2664 -3.472302164653355 8.457453302345293 8.166307929208315
2663 0.03027294266169506 4.948938843362298 -0.8727842698151627
2201 1.2095583958384273 6.651699332927843 2.7894162639497195
2658 8.485419699669928 22.14346716596798 -8.901217205508422
2204 -8.175653318548822 1.6864545082212612 0.1930111388823075
2205 16.206046183726905 14.5074801232113 -5.29933685276036
2659 -16.928999067213415 -13.006168432110746 14.923955349022858
2657 -1.812557279633749 8.848459165067057 7.33055764809469
2662 -5.884053274416709 51.92299130483934 -6.293844708253141
2660 2.8255553716717987 -1.9749512334592478 -2.0439899773014334
4101 -20.49229593236353 -5.372330715380078 -11.076552350144684
4100 -1.917224160382887 -7.267300696557163 -0.7933674262761818
4103 5.265321651505967 -1.795491285667586 8.511164904955443
4097 7.12308238150764 2.385940321813912 3.807658613842299
4104 -33.23265357809389 6.465704678106601 -8.203946106491555
4099 15.09080361016844 -16.958180022597457 -9.905477359095636
4102 24.67279757121226 -5.544505465350188 2.788469117164954
3441 -23.12615013730398 2.4814861212612263 5.5781374956437
4098 14.69852730072796 0.6517363082748643 -2.103525852384338
4203 9.166777447908219 0.7528375206881303 -11.317925210295053
3444 2.313080066871885 6.868569672013743 7.870772581700886
3443 3.415196664728014 -0.856445861188706 -3.331583362692049
567 -12.719636236473075 -9.909327802340037 -40.424717430453484
1893 -2.3994871224018404 -1.981946430378239 -14.332517357633794
2409 21.15398317081883 -10.826882260789217 5.826384672513361
1891 -2.201674701993749 2.8317392897897427 -14.117344796958507
3440 2.38413538756876 0.8606038303679869 0.20276359645279365
3442 28.733653025986342 7.810085120375784 6.146873547571576
5602 -1.2663815909418588 -15.050863394946957 7.082522430105537
120 18.58374065503434 -10.446730170852529 -64.20935571569727
2412 -25.50798746196893 1.9265032851080905 1.5706221082056073
3574 10.274878977611321 9.432823573052643 26.96752317789926
6214 5.267397083246869 8.607633501603651 0.9576397352450606
6212 2.7024845142300054 1.3170882883906314 -2.5221664289362726
6215 6.8163137060619015 -5.74017019016186 1.3140921362668034
1390 6.7804661570348745 -12.231579075989066 26.786307599795986
1392 28.01905658746571 3.0872538638566254 -14.2566594378912
210 0.7145225239923666 17.916641581170964 -19.4143293819331
3181 -24.477196136437097 -18.108424436287027 35.76521481697539
3179 11.185005609282019 -4.581701319263226 2.508840448451259
566 -3.0382285512530496 1.5649825976819325 -3.133001552125355
561 -6.667797109118999 0.6007872981174619 -21.168744697277805
559 -11.532012182872075 23.398131555190016 -24.66538628532453
125 -1.6212943592534266 -10.075490464662478 -0.9155383443099991
6168 8.129151113615508 12.627732608647987 5.767842909828422
603 -4.992410718207252 21.777205100743103 9.584888952353005
3090 15.629322348486387 -1.9727064695686074 7.302911169608068
735 5.304761522758569 31.232295140463904 -28.88030892706982
655 19.625111693080378 -0.023604072912873964 30.979225611677503
2410 -21.326715013338752 -2.641713312060091 -26.907280316249636
736 13.212699908295544 -1.3910786454020443 -17.048220243307313
654 -12.859289604761264 21.948318868370478 18.579566676516986
3511 10.99898215456175 10.438742507656688 4.360945161458129
6216 2.930361839405307 8.113223341863534 -34.60154055163106
6213 8.765607158874278 -15.130228685459592 -15.961714664314094
653 2.196333677696464 -2.785828976751764 -4.476625334742482
3180 10.375430371337224 -19.79356376964074 8.426290127552827
657 -3.5498128246867626 26.34466495791398 12.167438820350604
656 2.3545708091444335 -3.526249269779896 -2.1216283513735323
3446 -0.2334191889916407 4.188863697718004 0.185690574261988
3178 4.091882792400311 -25.434596328146338 1.7546608955365464
3517 -16.437823208823293 -10.937534185383582 -2.0340682041955067
3096 39.46718342670599 7.9573635102042415 -17.409729061417544
3514 -19.006712243772 17.982259071384398 -2.3137585047702114
3512 -3.1322274860385346 0.055557064477480766 5.241770897143847
3439 -9.787972704761787 -18.679793454439764 15.89542081963556
3091 33.06931429353866 22.73412743125669 10.977156664886733
3094 23.436847705128265 15.813795877629936 -17.806906317018168
3089 -0.9671809786568962 -3.075212291312549 -9.33148329419422
3513 -22.084921608988576 12.595438687836205 5.569819349632704
2411 5.661098910482601 2.9465972218169725 1.2532491200141604
5209 22.442987623544177 -19.84464871718753 14.678614410252413
602 5.954711672255088 -2.646150518057306 1.4040818986767765
600 18.43330674782606 6.936334119063221 -6.737148104813415
3516 1.4803759588064775 -11.654632783457245 2.4256070185057443
3445 -14.720632398435665 3.937719234707739 -10.58008953467209
2408 2.68896310948946 5.154998171968053 3.4015666673948575
599 -5.826616569548297 1.0667368657461522 -5.9873722953586075
601 18.664548970164137 3.5576771369052302 -7.292836909740198
3577 23.941242167002788 9.841811784917427 -52.953113637508785
595 1.206637376408923 12.448508944424542 19.409326421259994
596 -3.3991215356322297 3.9649166987776643 5.50767660415809
597 -24.580715657616654 14.475688500075968 32.534099015224385
598 16.53686293194093 25.917559701083572 -0.2408786112832599
3519 -21.201577302984248 -11.708521999196511 40.194252934920684
2406 -19.049989498105706 11.94494950861102 -1.6444555916645698
5206 -5.997566567981643 -4.818350220589917 17.308445019978297
5208 42.5048308634288 -14.74662035275752 -27.790745420353232
2407 -4.766292680243713 45.12950624044422 6.056656205987637
2405 -0.4782917790381065 -5.062290361138266 0.1313147475234764
3515 3.238253759027306 7.008312183427391 -3.8354207701446486
5205 -11.828454785788356 8.242144256024616 13.134997827573311
2404 -4.5067958397673396 0.5674572095348076 23.32483015972335
564 -2.432816002441939 -12.757135701062552 8.675382944874586
3447 -5.744131749547596 6.229065622867218 5.040070950700286
5389 16.687373099211506 3.917508819770985 -7.187387249359647
560 0.17738487085139706 -0.7728573705572144 -5.645438650995926
3093 -18.71728478657339 14.035062520431401 21.180793040326286
3092 0.6125642281211015 0.8263078956945522 2.435143213116242
562 3.122333049870578 10.359878242020123 -24.13974643299052
563 -1.2141096500931614 1.3969586757376182 -3.704627084320933
565 1.345972281851358 5.2285762407308605 -0.4885090650329956
3518 -2.6934581802095448 -2.04578381879551 6.696565699939112
5204 -4.209946583071948 0.8909592997982542 2.5430561293708336
5388 -2.345331161969801 -16.034499612706416 -8.524980050790521
5387 5.3285725393886425 4.463631456720365 0.898908582679287
5386 2.7100117704011666 11.204797918122464 9.155176180544496
5383 -4.443624219811299 -4.46771382829066 13.117876009201053
3582 9.661093047019847 -14.685405002743392 1.109737506914077
5385 -4.124042414997793 -1.2747187317067659 -24.961801415131305
3095 1.5676382628279102 -0.061202885111914185 -3.4001425257522846
5384 7.008493615990394 5.764310688981599 3.249978832622572
5211 -6.900464738455285 -3.9329541446877374 -37.961045998338605
5207 5.03296839144414 -0.258164501157184 -1.6403557344682107
5203 4.350214900875044 17.38849114795177 1.7763138257770277
5210 -2.4251604330557037 -3.2586216733882605 3.1249448619729407
5391 3.4203612489604645 12.286712611235927 32.36404242535083
5390 -6.188663345557459 0.33478062889202087 -1.69042767233835
