(written by ASE)

6300 atoms
3 atom types

0.0      40.789999999999999  xlo xhi
0.0      40.789999999999999  ylo yhi
0.0      40.789999999999999  zlo zhi

Masses

1      1.0079999997406976 # H
2      12.010999996910238 # C
3      15.998999995884349 # O

Atoms # atomic

     1   1      30.931821366024511       5.071961471103327      19.880660245183886
     2   2      30.260322241681259      5.4219982486865153      19.702070052539405
     3   1      29.688833625218908      5.0505306479859895       20.09496847635727
     4   1      30.288896672504379      6.1577898423817858      19.987814360770578
     5   2      30.088875656742552      5.4148546409807343       18.63767250437828
     6   1      30.674651488616458      5.7791786339754818      18.259061295971982
     7   1      30.067444833625217      4.6719194395796837       18.36621541155867
     8   3      29.210211908931697      5.8720455341506117      18.451938704028024
     9   1      29.117345008756566      5.8577583187390534      17.787583187390545
    10   1      30.017439579684758      2.1788003502626969      26.995693520140104
    11   2      30.346045534150615      1.5573064798598948      26.652800350262694
    12   1      29.817418563922946     0.97867425569176891      26.652800350262694
    13   1      30.481774080560417      1.7430402802101574      25.895577933450085
    14   2      31.260427320490372      1.2715621716287213      27.152852889667251
    15   1      31.781910683012253      1.8716252189141858      27.152852889667251
    16   1      31.117555166374782      1.0929719789842383      27.910075306479861
    17   3      31.646182136602452     0.47147810858143613      26.681374781085811
    18   1      32.210527145359023     0.30717513134851132      27.002837127845879
    19   1      31.960500875656741      27.174283712784586      31.860490367775828
    20   2      32.046224168126095      26.745667250437833      31.217565674255692
    21   1      31.589033274956218      27.059985989492112      30.653220665499123
    22   1      32.796302977232926      26.824246935201398      30.974683012259192
    23   2      31.803341506129595      25.709844133099825      31.403299474605952
    24   1      32.260532399299471      25.409812609457092      31.974788091068302
    25   1      31.046119089316985       25.64555166374781      31.653325744308233
    26   3       31.92478283712785      25.188360770577933      30.553210157618214
    27   1      31.760479859894915      24.552579684763572       30.68179509632224
    28   1      17.759008756567429      8.7723502626970227      31.174704028021011
    29   2      18.337640980735554      9.1652486865148859      30.831810858143601
    30   1      18.309066549912437      8.9938021015761827      30.060301225919435
    31   1      18.180481611208403       9.929614711033274      30.903246935201395
    32   2      19.287740805604205      8.9152224168126093      31.274714535901925
    33   1      19.294884413309983      9.0795253940455343      32.046224168126095
    34   1       19.43775656742557      8.1365691768826629      31.203278458844139
    35   3      20.002101576182135      9.4367057793345008       30.79609281961471
    36   1      20.595021015761819      9.2724028021015759      31.081837127845883
    37   1      10.043912434325744       35.96092119089316      3.4932241681260945
    38   2      9.4009877408056024       36.14665499124343      3.9004098073555173
    39   1      9.2223975481611209      36.896733800350262      3.7218196147110332
    40   1      8.8152119089316994      35.696607705779336      3.6360963222416811
    41   2      9.5652907180385291      36.003782837127844      4.9576637478108578
    42   1      9.7510245183887925      35.253704028021012      5.1148231173380037
    43   1      10.165353765323994      36.453830122591945      5.2148336252189145
    44   3      8.7152014010507877      36.260952714535904      5.4434290718038527
    45   1      8.8294991243432577      36.168085814360765      6.1006409807355508
    46   1      13.208530647985986      38.025423817863398       19.19487390542907
    47   2       12.53703152364273      37.653956217162872       19.33774605954466
    48   1      12.687047285464098      36.875302977232913       19.33774605954466
    49   1      12.315579684763572      37.839690017513135      20.073537653239931
    50   2      11.779809106830124      37.925413309982488      18.616241681260945
    51   1      11.651224168126092      38.704066549912433      18.630528896672505
    52   1       12.01554816112084      37.739679509632218      17.880450087565674
    53   3       10.93686339754816      37.418217162872153      18.844837127845885
    54   1      10.479672504378286      37.596807355516624      18.380502626970227
    55   1        25.5455411558669      18.673390542907182      14.565816112084061
    56   2      25.309802101576182      18.723395796847633      15.308751313485113
    57   1      24.524005253940455       18.69482136602452      15.308751313485113
    58   1      25.566971978984235      18.080471103327497      15.680218914185639
    59   2      25.688413309982483      19.630633975481611      15.765942206654989
    60   1      26.474210157618216      19.644921190893172      15.744511383537656
    61   1       25.43124343257443      20.266415061295969      15.373043782837128
    62   3      25.359807355516633      19.652064798598946      16.716042031523642
    63   1      25.595546409807351      20.223553415061296      16.987499124343259
    64   1      39.246980735551659      40.575691768826616      11.786952714535902
    65   2      39.354134851138355      39.811325744308228      11.672654991243432
    66   1      39.532725043782825      39.704171628721532      10.915432574430822
    67   1      39.997059544658498      39.604161120840622      12.086984238178633
    68   2       38.48975831873905      39.246980735551659      11.972686514886162
    69   1       38.31831173380035      39.368422066549911      12.737052539404552
    70   1      37.846833625218913      39.468432574430821      11.558357267950964
    71   3       38.67549211908932      38.268306479859895       11.80838353765324
    72   1      38.125434325744308       37.93255691768826      12.001260945709282
    73   1      2.4002521891418565      20.566446584938703      35.853767075306479
    74   2      2.2573800350262698      20.252127845884413      36.553840630472855
    75   1      1.6573169877408056      19.752075306479863      36.468117338003509
    76   1      2.8860175131348513      19.816367775831875      36.746718038528897
    77   2      2.0573590192644482      21.009350262697019      37.289632224168123
    78   1      2.6645656742556918      21.509402802101576      37.353924693520142
    79   1      1.4287215411558669      21.445110332749561      37.075323992994754
    80   3      1.8787688266199647      20.559302977232925      38.168295971978978
    81   1       1.750183887915937      21.045068301225918      38.618343257443073
    82   1      12.729908931698775      36.589558669001754      34.717933450087557
    83   2       12.53703152364273      36.075218914185641      35.275134851138354
    84   1       12.25128721541156      35.432294220665497      34.910810858143606
    85   1      13.208530647985986      35.853767075306479      35.632315236427324
    86   2      11.836957968476357      36.496691768826615      35.975208406304731
    87   1       12.13698949211909      37.139616462346758      36.318101576182137
    88   1       11.17260245183888       36.71814360770577      35.603740805604204
    89   3      11.622649737302977      35.796618213660246      36.668138353765322
    90   1      11.179746059544657      36.075218914185641      37.096754816112082
    91   1      20.509297723292466      14.608677758318739      33.532094570928194
    92   2      20.294989492119093      13.987183887915936      33.103478108581442
    93   1       20.52358493870403      14.130056042031523      32.360542907180388
    94   1      20.716462346760068      13.372833625218917      33.353504378283709
    95   2      19.237735551663746      13.801450087565673      33.182057793345002
    96   1      19.030570928196148      13.672865148861646      33.932136602451841
    97   1      18.823406304728547      14.437231173380034      32.932031523642735
    98   3       19.00914010507881      13.008509632224166      32.610569176882663
    99   1      18.344784588441328      12.908499124343258      32.667718038528896
   100   1      17.301817863397549       17.92331173380035      39.218406304728553
   101   2      18.016178633975478      18.144763572679505      39.432714535901916
   102   1      17.937598949211907      18.587667250437828      40.082782837127844
   103   1      18.416220665499122      17.501838879159369      39.639879159369521
   104   2      18.509087565674257       18.68053415061296      38.632630472854643
   105   1      18.566236427320494      18.230486865148858      37.989705779334493
   106   1      18.094758318739053      19.330602451838878      38.432609457092816
   107   3       19.42346935201401      18.959134851138355      38.954092819614715
   108   1      19.716357267950958      19.287740805604205      38.446896672504366
   109   1      28.224394045534147      40.325665499124348      1.3715726795096321
   110   2      28.838744308231167      40.768569176882664      1.5644500875656739
   111   1      28.560143607705779     0.68578633975481607      1.7859019264448337
   112   1      29.160206654991242      40.447106830122593      2.2073747810858144
   113   2      29.538817863397544    0.050005253940455338     0.75007880910683011
   114   1        29.7959877408056      40.125644483362521     0.54291418563922944
   115   1      29.195924693520134     0.37146760070052542     0.11429772329246936
   116   3      30.310327495621721     0.62863747810858139      1.0501103327495622
   117   1      30.738943957968473     0.66435551663747794     0.53577057793344995
   118   1      36.139511383537659      2.4788318739054289      11.072591943957969
   119   2      36.646707530647987      2.7145709281961472      10.522534150612959
   120   1      37.175334500875657      3.1860490367775833      10.879714535901924
   121   1      37.039605954465848      2.0787898423817861       10.27250788091068
   122   2      36.139511383537659      3.2074798598949208       9.715306479859894
   123   1      35.610884413309982      2.7288581436077055      9.3795569176882658
   124   1      35.739469352014005      3.8432609457092819      9.9796199649737307
   125   3      36.825297723292465      3.5003677758318741      9.0366637478108576
   126   1      36.489548161120837      3.8075429071803852      8.5366112084063062
   127   1      24.888329246935204      39.889905429071803      21.052211908931699
   128   2      25.566971978984235      39.954197898423821      20.680744308231169
   129   1      25.867003502626968      40.661415061295976      20.859334500875658
   130   1      26.059880910683013      39.418427320490366      20.980775831873903
   131   2      25.445530647985986      39.825612959719791      19.616346760070055
   132   1        25.1312119089317      39.118395796847629      19.452043782837126
   133   1      24.938334500875655      40.368527145359018        19.3234588441331
   134   3      26.345625218914183      39.925623467600701      19.173443082311735
   135   1      26.245614711033276      39.847043782837126      18.516231173380035
   136   1      11.322618213660244       18.69482136602452      22.102322241681261
   137   2      10.872570928196147      18.101901926444832      21.852295971978986
   138   1      11.208320490367774      17.430402802101575      22.095178633975483
   139   1      10.179640980735552      18.159050788091069      22.216619964973724
   140   2      10.758273204903679      18.130476357267952      20.773611208406301
   141   1      10.429667250437829      18.809119089316987      20.552159369527143
   142   1      11.465490367775832      18.080471103327497      20.416430823117334
   143   3      10.179640980735552      17.351823117338004      20.502154115586691
   144   1      10.115348511383537       17.38039754816112      19.830654991243431
   145   1      14.194348511383536       3.550373029772329      10.501103327495619
   146   2      13.851455341506128       2.864586690017513      10.379661996497374
   147   1      13.558567425569176      2.6145604203152364      11.065448336252189
   148   1      13.237105078809108      2.9860280210157613      9.9010402802101556
   149   2      14.551528896672501      2.1502259194395794      9.9510455341506123
   150   1      14.837273204903678      2.4216830122591944      9.2724028021015759
   151   1      15.165879159369528      2.0430718038528894      10.443954465849387
   152   3       14.06576357267951      1.2787057793345009      9.8153169877408057
   153   1      14.508667250437828     0.85008931698774071      9.5581471103327509
   154   1      15.230171628721541      30.088875656742552      32.246245183887915
   155   2      15.730224168126092      30.510348511383533      32.667718038528896
   156   1      16.458872154115586      30.360332749562168      32.403404553415058
   157   1      15.587352014010506      31.274714535901925      32.510558669001753
   158   2      15.630213660245186      30.303183887915939      33.724971978984236
   159   1      14.894422066549911        30.4531996497373      33.967854640980732
   160   1      15.773085814360771      29.531674255691769      33.867844133099823
   161   3      16.294569176882664      30.867528896672496      34.225024518388793
   162   1      16.223133099824871      30.724656742556917        34.8750928196147
   163   1      10.215359019264447      29.903141856392295      9.2223975481611209
   164   2      9.8367478108581423      30.560353765323988      9.4224185639229425
   165   1      9.3795569176882658      30.767518388791601      8.8152119089316994
   166   1      9.3581260945709293      30.381763572679507      10.022481611208407
   167   2      10.536821366024517      31.339007005253936      9.6938756567425575
   168   1      10.994012259194394         31.110411558669      10.293938704028021
   169   1      11.022586690017514       31.49616637478108      9.0795253940455343
   170   3      10.015338003502627      32.160521891418561       9.936758318739054
   171   1      10.465385288966726      32.639143607705776      10.101061295971979
   172   1      15.187309982486862      1.8859124343257445      33.146339754816111
   173   2      15.623070052539402      2.2073747810858144      33.703541155866901
   174   1      15.780229422066547      2.9431663747810859      33.482089316987746
   175   1      15.173022767075308      2.2573800350262698      34.353609457092823
   176   2      16.516021015761819      1.6287425569176883      33.882131348511386
   177   1      16.337430823117337     0.89295096322241685      34.096439579684755
   178   1      16.951781085814364      1.5787373029772329      33.224919439579686
   179   3      17.044647985989492      2.0859334500875653      34.610779334500876
   180   1      17.601849387040282      1.7144658493870399      34.703646234676008
   181   1      39.889905429071803       35.61802802101576     0.96438704028021027
   182   2      40.339952714535904      36.089506129597197        1.39300350262697
   183   1    0.042861646234673347      36.453830122591945       0.900094570928196
   184   1      39.875618213660246      36.639563922942202      1.7073222416812608
   185   2    0.071436077057790343      35.532304728546414      2.1645131348511382
   186   1      40.354239929947461      35.167980735551666      2.6359912434325743
   187   1     0.53577057793345295      34.975103327495624      1.8359071803852889
   188   3     0.64292469352013937      36.182373029772336      2.6859964973730297
   189   1     0.96438704028020783      35.825192644483359      3.1574746059544658
   190   1      15.644500875656743      30.817523642732045      11.072591943957969
   191   2      15.630213660245186      30.181742556917683      10.622544658493871
   192   1      16.273138353765326      30.196029772329247      10.165353765323994
   193   1      15.701649737302976        29.5531050788091      11.094022767075305
   194   2      14.722975481611208      30.131737302977232      10.036768826619966
   195   1      14.087194395796844       30.12459369527145      10.508246935201402
   196   1      14.658683012259194      30.774661996497368      9.5724343257443092
   197   3      14.751549912434324      29.295935201401047      9.4724238178633993
   198   1      14.180061295971978      29.288791593695272      9.1152434325744291
   199   1      18.166194395796847      3.1931926444833625       31.39615586690017
   200   2      17.744721541155869      2.9288791593695267       30.79609281961471
   201   1       18.15190718038529      2.3431033274956219       30.46748686514886
   202   1      17.087509632224165      2.6217040280210151      31.081837127845883
   203   2      17.537556917688267      3.7289632224168128      30.096019264448334
   204   1      17.144658493870399       4.307595446584938      30.446056042031518
   205   1      18.216199649737302      4.0361383537653239      29.817418563922946
   206   3      17.001786339754815      3.3432084063047292      29.331653239929945
   207   1      16.880345008756567      3.8504045534150619      28.903036777583189
   208   1      7.8436812609457087      18.873411558669002      33.453514886164619
   209   2      8.0294150612959729      19.502049036777585      33.024898423817866
   210   1      7.5079316987740805      20.066394045534153      33.196345008756566
   211   1       8.736632224168126      19.752075306479863       33.28206830122592
   212   2      8.0508458844133095      19.259166374781081      31.974788091068302
   213   1      8.5723292469351993       18.68053415061296      31.831915936952711
   214   1      7.3436287215411555      18.994852889667246      31.731905429071801
   215   3      8.3008721541155861      20.087824868651488      31.467591943957967
   216   1      8.3008721541155861      19.923521891418563      30.810380035026263
   217   1      36.846728546409814   0.0071436077057748385      16.023112084063047
   218   2      37.553945709281955     0.32860595446585239      16.137409807355517
   219   1       37.76111033274956     0.67149912434326542      15.458767075306479
   220   1      37.468222416812608     0.90723817863397394      16.666036777583187
   221   2      38.268306479859895      40.382814360770574      16.466015761821367
   222   1      38.039711033274955      40.039921190893175      17.137514886164624
   223   1       38.34688616462347      39.804182136602449      15.923101576182136
   224   3      39.161257443082313    0.050005253940454859      16.587457092819616
   225   1      39.597017513134851      40.375670753064803      16.787478108581436
   226   1      36.889590192644484       3.878978984238179      36.868159369527149
   227   2      37.575376532399297      3.6575271453590195      37.161047285464093
   228   1      37.825402802101578      3.0431768826619958      36.725287215411555
   229   1       38.08971628721541      4.2433029772329247       37.04674956217162
   230   2      37.482509632224165       3.407500875656742      38.211157618213662
   231   1      37.225339754816112      4.0218511383537647      38.618343257443073
   232   1       36.96102626970228      2.8145814360770576      38.311168126094572
   233   3       38.38974781085814      3.1146129597197896      38.539763572679504
   234   1       38.31831173380035      2.9574535901926438      39.189831873905426
   235   1      9.1509614711033258       3.628952714535902      34.346465849387037
   236   2      9.7653117338003508      3.8146865148861639      34.796513134851146
   237   1      10.301082311733801      3.2431978984238179      34.710789842381786
   238   1      10.079630472854641       4.471898423817863      34.510768826619966
   239   2      9.4652802101576157       3.936127845884414      35.832336252189137
   240   1      8.9223660245183893      4.5004728546409805      35.896628721541155
   241   1      9.1438178633975493      3.2646287215411562      36.103793345008754
   242   3      10.286795096322239      4.1647232924693522      36.368106830122592
   243   1      10.086774080560421      4.2361593695271456       37.00388791593695
   244   1      31.046119089316985      26.738523642732044      26.609938704028018
   245   2      30.653220665499123      27.410022767075308      26.624225919439578
   246   1      30.288896672504379      27.488602451838872      25.924152364273201
   247   1      30.081732049036773      27.338586690017511      27.167140105078811
   248   2      31.303288966725038      28.245824868651489      26.845677758318736
   249   1      31.660469352014015      28.145814360770572      27.538607705779334
   250   1      31.874777583187388      28.302973730297726      26.295619964973731
   251   3      30.746087565674255      29.081626970227667      26.845677758318736
   252   1       31.16756042031524       29.59596672504378      26.981406304728544
   253   1      8.6937705779334511      3.9289842381786335     0.39289842381786338
   254   2      8.8437863397548142      3.6861015761821365      1.1144028021015762
   255   1      9.1795359019264424      4.2861646234675996      1.5073012259194394
   256   1      8.1508563922942212      3.5432294220665494      1.4644395796847633
   257   2      9.4724238178633993      2.8074378283712784      1.1072591943957968
   258   1       9.129530647985991      2.2216619964973727     0.70721716287215408
   259   1      10.165353765323994      2.9645971978984229     0.75007880910683011
   260   3      9.6438704028021025      2.5288371278458843      2.0645026269702274
   261   1      10.036768826619966      1.9859229422066551      2.0430718038528894
   262   1      24.516861646234673      35.982352014010509      26.367056042031521
   263   2      25.116924693520136      36.203803852889664      26.809959719789841
   264   1      25.774136602451836      35.910915936952712      26.481353765323991
   265   1      25.174073555166373      36.989600700525394      26.767098073555161
   266   2      24.995483362521892      35.875197898423814      27.831495621716286
   267   1      24.331127845884414      36.168085814360765      28.138670753064801
   268   1      24.938334500875655      35.082257443082305      27.860070052539402
   269   3      25.795567425569175      36.182373029772336      28.360122591943956
   270   1      25.709844133099825       35.96092119089316      28.988760070052539
   271   1      6.5292574430823125      23.766782837127842      17.237525394045534
   272   2      7.1578949211908931      23.866793345008755      16.787478108581436
   273   1      7.4364956217162872       24.58829772329247        16.9374938704028
   274   1      7.7150963222416822      23.359597197898427      17.023217162872154
   275   2      6.9150122591943948      23.731064798598947      15.744511383537656
   276   1      6.6292679509632224      23.009560420315232      15.615926444833622
   277   1      6.3578108581436075      24.245404553415057      15.515915936952716
   278   3       7.757957968476358      23.881080560420315      15.201597197898424
   279   1      7.5865113835376539      23.795357267950962      14.558672504378283
   280   1      5.0862486865148853      40.425676007005258      8.2794413309982495
   281   2      5.1076795096322236      40.747138353765322      7.5650805604203146
   282   1      5.8649019264448325     0.02857443082311734      7.3650595446584921
   283   1      4.7933607705779337      40.225654991243431      7.0650280210157614
   284   2      4.5861961471103321       0.900094570928196      7.5365061295971962
   285   1      3.8289737302977236     0.80722767075306479      7.7508143607705771
   286   1      4.9076584938704029      1.4072907180385288      8.0508458844133095
   287   3      4.6433450087565671      1.2644185639229422      6.6006935201401049
   288   1       4.314739054290718       1.857338003502627      6.6078371278458841
   289   1      37.189621716287213      34.575061295971977      34.632210157618211
   290   2      36.618133099824874      35.075113835376534      34.817943957968474
   291   1      36.153798598949209      35.153693520140102      34.189306479859894
   292   1      36.182373029772336      34.725077057793342      35.382288966725042
   293   2      37.011031523642735      36.018070052539407       35.16083712784588
   294   1      37.482509632224165       35.91805954465849      35.782330998248689
   295   1      37.453935201401059      36.353819614711036      34.589348511383534
   296   3      36.239521891418562      36.618133099824874       35.38943257443082
   297   1        36.5038353765324      37.203908931698763      35.596597197898426
   298   1      19.909234676007003      8.2437232924693493      18.230486865148858
   299   2      19.237735551663746      8.0437022767075295      18.573380035026268
   300   1      19.416325744308232      7.6436602451838889      19.230591943957965
   301   1       18.88055516637478      8.7080577933450094      18.801975481611205
   302   2      18.616241681260945      7.4722136602451847      17.901880910683008
   303   1      18.451938704028024      7.8793992994746054       17.25181260945709
   304   1      18.987709281961472      6.8078581436077048      17.680429071803854
   305   3      17.766152364273207      7.2293309982486864      18.394789842381783
   306   1      17.387541155866902      6.8721506129597181      17.966173380035027
   307   1      24.716882661996497                       0      28.345835376532396
   308   2      25.195504378283715     0.59291943957968474      28.495851138353768
   309   1      25.759849387040283     0.59291943957968474      27.938649737302978
   310   1       24.78831873905429      1.2644185639229422      28.402984238178632
   311   2      25.616977232924693     0.52148336252189131      29.488812609457092
   312   1      25.045488616462343     0.51433975481611205      30.031726795096322
   313   1      26.024162872154111      40.632840630472856      29.567392294220664
   314   3      26.231327495621716      1.3072802101576182      29.631684763572675
   315   1      26.481353765323991      1.2501313485113834       30.25317863397548
   316   1       25.45981786339755      12.515600700525392      2.0144973730297724
   317   2      26.109886164623461      12.737052539404552      1.6430297723292469
   318   1      26.274189141856393      13.472844133099823      1.8716252189141858
   319   1      26.695661996497375      12.279861646234677       1.907343257443082
   320   2      26.002732049036776       12.65847285464098     0.57148861646234683
   321   1      25.824141856392298      11.915537653239928     0.36432399299474605
   322   1      25.402669001751313      13.115663747810858     0.32146234676006996
   323   3      26.859964973730289      12.951360770577933     0.14287215411558671
   324   1       26.77424168126095      12.901355516637478      40.268516637478115
   325   1      38.311168126094572      35.796618213660246       23.88822416812609
   326   2      38.268306479859895      35.067970227670749       23.61676707530648
   327   1      38.061141856392297      34.603635726795098       24.21683012259194
   328   1      37.682530647985992      35.046539404553407      23.095283712784589
   329   2       39.20411908931699      34.760795096322241       23.17386339754816
   330   1       39.40414010507881      35.246560420315241      22.580943957968472
   331   1      39.789894921190893      34.796513134851146      23.709633975481609
   332   3       39.10410858143608      33.817838879159375      22.845257443082307
   333   1      39.697028021015768      33.639248686514883      22.573800350262694
   334   1      27.117134851138353      7.6150858143607705      17.501838879159369
   335   2      27.024267950963221      8.3937390542907178      17.466120840630474
   336   1      26.252758318739051      8.5294676007005243      17.366110332749564
   337   1      27.224288966725045      8.6866269702276711      18.166194395796847
   338   2      27.617187390542909      8.8223555166374776      16.673180385288966
   339   1       28.38155341506129      8.6651961471103327      16.780334500875657
   340   1      27.410022767075308      8.5080367775831878      15.965963222416811
   341   3      27.460028021015756      9.8153169877408057      16.658893169877409
   342   1      27.831495621716286      10.065343257443081      16.158840630472856
   343   1      4.4218931698774071      27.945793345008756       31.25328371278459
   344   2      4.1361488616462339      28.524425569176881      30.810380035026263
   345   1      3.3860700525394045      28.638723292469354       31.02468826619965
   346   1       4.529047285464098      29.181637478108581      30.996113835376534
   347   2      4.2290157618213664      28.288686514886162      29.760269702276705
   348   1      4.9862381786339753      28.167245183887918      29.567392294220664
   349   1      3.8361173380035023      27.617187390542909      29.588823117338006
   350   3      3.8504045534150619      29.053052539404554      29.224499124343261
   351   1      3.9146970227670757      28.888749562171629      28.574430823117339
   352   1       11.04401751313485     0.77150963222417046      16.480302977232924
   353   2      11.486921190893172     0.17859019264448586      16.730329246935202
   354   1      12.208425569176882     0.28574430823117236      16.430297723292469
   355   1      11.551213660245185     0.25002626970228292      17.516126094570929
   356   2      11.058304728546409      40.018490367775833      16.451728546409807
   357   1      10.336800350262696      39.939910683012265      16.744616462346759
   358   1      10.994012259194394      39.968485113835371      15.658788091068303
   359   3       11.66551138353765      39.289842381786343      16.787478108581436
   360   1       11.38691068301226      38.704066549912433      16.601744308231172
   361   1      18.751970227670753      5.5291523642732043     0.73579159369527192
   362   2       18.78054465849387      4.7933607705779337     0.47862171628721889
   363   1       19.50919264448336      4.6647758318739054     0.20716462346760287
   364   1       18.68053415061296      4.3218826619964972      1.1001155866900205
   365   2      18.030465849387042      4.6147705779334505      40.511399299474604
   366   1      17.308961471103327      4.7576427320490371   0.0071436077057748385
   367   1       18.13761996497373      5.1005359019264445      39.897049036777588
   368   3      18.109045534150614      3.6575271453590195      40.211367775831867
   369   1      17.637567425569177      3.5646602451838878      39.739889667250431
   370   1      35.482299474605952      33.496376532399303      24.852611208406305
   371   2      35.410863397548155      34.167875656742552       24.45971278458844
   372   1      34.775082311733804      34.539343257443086      24.738313485113839
   373   1      36.032357267950957      34.617922942206654        24.6454465849387
   374   2      35.346570928196151      33.989285464098074      23.395315236427322
   375   1      35.989495621716287      33.610674255691769      23.138145359019262
   376   1      34.717933450087557       33.53923817863398      23.223868651488615
   377   3      35.260847635726797      34.882236427320493      22.930980735551664
   378   1      35.217985989492114      34.760795096322241      22.273768826619964
   379   1      21.587982486865144      5.7148861646234677      3.8432609457092819
   380   2      21.066499124343252      5.5434395796847635      3.2860595446584937
   381   1      20.887908931698774      4.7790735551663754      3.3574956217162861
   382   1       20.40928721541156      5.9506252189141859      3.4503625218914182
   383   2      21.452253940455343       5.786322241681261      2.3073852889667252
   384   1      21.637987740805602      6.5506882661996499       2.264523642732049
   385   1      22.116609457092817      5.3791366024518394      2.1645131348511382
   386   3      20.752180385288966      5.5434395796847635      1.6287425569176883
   387   1      21.009350262697019      5.7005989492119093      1.0215359019264447
   388   1      27.395735551663744     0.48576532399299477      6.5364010507880916
   389   2      26.824246935201398       0.900094570928196      6.8578633975481598
   390   1      27.159996497373033      1.4358651488616465      7.3364851138353764
   391   1      26.467066549912431      1.3072802101576182      6.2863747810858142
   392   2      26.124173380035025      0.2643134851138354      7.3864903677758322
   393   1      25.809854640980738      40.525686514886168      6.9007250437828365
   394   1      26.502784588441333      40.654271453590198       7.965122591943957
   395   3      25.409812609457092     0.84294570928196133      7.7936760070052529
   396   1      24.988339754816113     0.43576007005253936      8.1222819614711046
   397   1      5.0290998248686511      34.339322241681259      33.474945709281954
   398   2      4.4790420315236421      33.810695271453589      33.632105078809097
   399   1      4.8076479859894912      33.096334500875656      33.560669001751315
   400   1      4.2790210157618214      33.889274956217164      34.389327495621707
   401   2      3.6218091068301224      33.932136602451841       32.98203677758319
   402   1      3.3146339754816112      34.646497373029774       33.05347285464098
   403   1      3.8432609457092819      33.846413309982488      32.217670753064795
   404   3      2.9431663747810859      33.224919439579686      33.217775831873901
   405   1      2.4216830122591944       33.31064273204904      32.803446584938698
   406   1      27.410022767075308      21.873726795096321       19.83779859894921
   407   2      28.160101576182136      21.916588441330994      19.630633975481611
   408   1      28.574430823117339      21.452253940455343      20.123542907180386
   409   1      28.231537653239929      21.602269702276708      18.909129597197897
   410   2      28.517281961471102      22.938124343257439      19.644921190893172
   411   1      28.088665499124339      23.388171628721544      19.152012259194397
   412   1      28.438702276707531      23.252443082311732      20.373569176882661
   413   3       29.48166900175131      22.945267950963224      19.373464098073555
   414   1      29.688833625218908      23.581049036777586       19.39489492119089
   415   1      17.030360770577929      4.2004413309982489      1.4287215411558669
   416   2      16.351718038528897      4.4076059544658497       1.757327495621716
   417   1      16.201702276707529      5.1505411558669003      1.5501628721541156
   418   1      15.787373029772329      3.9575586690017519      1.4430087565674257
   419   2      16.394579684763574      4.2861646234675996      2.8288686514886163
   420   1      16.558882661996499      3.5432294220665494      3.0217460595446584
   421   1      16.980355516637474      4.7362119089316996      3.1360437828371275
   422   3      15.508772329246934      4.5647653239929955      3.2146234676007004
   423   1      15.551633975481609      4.4933292469352013      3.8861225919439581
   424   1      8.0579894921190895      16.580313485113837      5.7077425569176885
   425   2      7.8365376532399296      16.001681260945713      5.2362644483362519
   426   1      7.4364956217162872      16.323143607705781      4.6290577933450088
   427   1      8.4866059544658494      15.680218914185639      4.9290893169877394
   428   2      7.2436182136602447      15.273033274956214      5.7648914185639235
   429   1      7.6508038528896654      14.973001751313486      6.3720980735551667
   430   1      6.5935499124343258      15.615926444833622      6.0720665499124333
   431   3      6.9721611208406298      14.551528896672501      5.1219667250437828
   432   1      6.6078371278458841      14.101481611208404      5.4648598949211902
   433   1      21.202227670753061        24.6454465849387      13.722870402802101
   434   2      20.545015761821361      24.231117338003504      13.651434325744306
   435   1      19.973527145359018      24.631159369527143      14.022901926444836
   436   1      20.352138353765326       24.21683012259194      12.887068301225918
   437   2      20.666457092819616       23.23101225919439      14.051476357267951
   438   1      21.245089316987741      22.852401050788089      13.672865148861646
   439   1      20.866478108581429      23.259586690017507      14.815842381786338
   440   3      19.794936952714536      22.745246935201401       13.94432224168126
   441   1      19.880660245183886      22.123753064798596      14.194348511383536
   442   1      27.817208406304722      33.517807355516638      29.996008756567424
   443   2      27.702910683012256      34.003572679509631      29.395945709281968
   444   1      26.931401050788093      34.003572679509631      29.231642732049028
   445   1      27.888644483362519      34.725077057793342      29.638828371278457
   446   2      28.302973730297726      33.703541155866901      28.545856392294219
   447   1      29.067339754816107      33.696397548161116      28.724446584938704
   448   1      28.110096322241681      32.967749562171633      28.310117338003504
   449   3      28.124383537653237      34.353609457092823      27.795777583187387
   450   1      28.502994746059549      34.153588441330996      27.274294220665496
   451   1      21.180796847635726      4.8790840630472854      30.460343257443082
   452   2      20.937914185639233      5.5791576182136611        30.2103169877408
   453   1      20.495010507880913      5.8934763572679509       30.78180560420315
   454   1      21.573695271453591      6.0434921190893167      30.138880910683014
   455   2       20.40928721541156      5.4934343257443086      29.274504378283709
   456   1      20.866478108581429      5.1719719789842387      28.717302977232922
   457   1      19.773506129597198       5.021956217162872      29.360227670753066
   458   3      20.109255691768826      6.4149597197898416      28.988760070052539
   459   1       19.78064973730298      6.3435236427320492      28.410127845884407
   460   1      38.918374781085816      9.3724133099824876      32.496271453590197
   461   2      38.618343257443073      10.079630472854641       32.38197373029773
   462   1      37.861120840630463      10.051056042031524      32.589138353765328
   463   1       38.97552364273205      10.579683012259196      32.874882661996502
   464   2       38.74692819614711       10.38680560420315        31.3532942206655
   465   1      39.504150612959727      10.401092819614709      31.153273204903677
   466   1       38.38974781085814       9.872465849387039      30.860385288966729
   467   3      38.332598949211906      11.301187390542907      31.246140105078805
   468   1       38.41832224168126       11.47977758318739      30.603215411558661
   469   1      9.8010297723292474      11.215464098073555      9.5367162872154108
   470   2      10.093917688266201      10.672549912434325      10.022481611208407
   471   1      10.008194395796846      10.944007005253939      10.758273204903679
   472   1      9.6367267950963225      10.036768826619966      9.9653327495621689
   473   2      11.122597197898422      10.451098073555167      9.7795989492119073
   474   1      11.186889667250439      10.193928196147111      9.0366637478108576
   475   1      11.572644483362522      11.108309982486862      9.8367478108581423
   476   3      11.451203152364274      9.7510245183887925      10.429667250437829
   477   1      12.094127845884412      9.6295831873905406      10.265364273204904
   478   1       9.065238178633976      19.702070052539405      15.358756567425567
   479   2      9.0080893169877392      20.330707530647988      14.901565674255691
   480   1      8.3723082311733794       20.73789316987741      15.137304728546411
   481   1      9.6367267950963225      20.787898423817865      15.044437828371276
   482   2      8.9437968476357259      20.059250437828371      13.858598949211906
   483   1      9.5795779334500875      19.644921190893172      13.637147110332748
   484   1      8.3151593695271444      19.594915936952713      13.730014010507878
   485   3      8.8652171628721543      20.902196147110335       13.31568476357268
   486   1      8.8294991243432577      20.716462346760068      12.665616462346758
   487   1      38.961236427320493      20.816472854640981      3.2289106830122591
   488   2      39.611304728546415      20.495010507880913      2.9431663747810859
   489   1      40.218511383537653      20.952201401050786       3.164618213660245
   490   1      39.711315236427318      19.802080560420311      3.2932031523642729
   491   2      39.554155866900174      20.394999999999996      1.8716252189141858
   492   1      38.939805604203151      19.944952714535901       1.664460595446585
   493   1      39.454145359019265      21.102217162872158      1.5287320490367775
   494   3       40.41853239929948        19.9806707530648      1.5430192644483363
   495   1      40.368527145359018      19.930665499124338     0.87866374781085799
   496   1      10.658262697022767      18.923416812609457      24.552579684763572
   497   2      10.465385288966726      18.180481611208403      24.652590192644482
   498   1      11.079735551663747       17.73757793345009      24.416851138353763
   499   1      10.379661996497374      18.051896672504377      25.424099824868655
   500   2      9.5581471103327509      17.937598949211907       24.11681961471103
   501   1      8.9580840630472842      18.387646234676005      24.352558669001748
   502   1      9.6581576182136608      18.066183887915933      23.338166374781085
   503   3      9.3509824868651492      16.966068301225921      24.266835376532399
   504   1      8.7866374781085828      16.830339754816112      23.923942206654988
   505   1      25.195504378283715      18.801975481611205       3.407500875656742
   506   2      25.338376532399298      19.087719789842382      4.1218616462346747
   507   1      25.352663747810858       18.48051313485114      4.6219141856392296
   508   1      26.067024518388791       19.39489492119089      4.1147180385288964
   509   2      24.602584938704027      19.830654991243431      4.3933187390542914
   510   1      24.595441330998248      20.423574430823116       3.871835376532399
   511   1      23.873936952714537       19.50919264448336      4.3933187390542914
   512   3      24.824036777583188      20.173548161120841      5.3148441330998235
   513   1      24.352558669001748       20.62359544658494      5.4720035026269693
   514   1      1.6073117338003502      29.667402802101574      2.1287950963222411
   515   2      1.1715516637478109      29.124488616462344      2.4788318739054289
   516   1     0.42861646234675999      29.224499124343261      2.2288056042031523
   517   1      1.4072907180385288      28.424415061295971      2.2216619964973727
   518   2      1.2501313485113834      29.203068301225919      3.5575166374781086
   519   1      2.0002101576182141      29.110201401050784      3.7861120840630473
   520   1      1.0072486865148862      29.917429071803845      3.8075429071803852
   521   3     0.67149912434325743      28.488707530647986      3.9647022767075311
   522   1      0.7286479859894921      28.545856392294219      4.6362014010507879
   523   1      8.7509194395796843      13.358546409807357       8.450887915936951
   524   2      8.4437443082311745      13.780019264448335      9.0366637478108576
   525   1      7.7008091068301239       13.95146584938704      8.8366427320490377
   526   1      8.4151698774080561       13.31568476357268      9.6724448336252173
   527   2      9.0295201401050793      14.665826619964973      9.2223975481611209
   528   1       9.772455341506129      14.480092819614713      9.4009877408056024
   529   1      9.0580945709281959      15.123017513134853      8.5651856392294228
   530   3      8.6009036777583177      15.180166374781084      9.9724763572679507
   531   1      8.9723712784588443      15.730224168126092      10.072486865148862
   532   1      16.873201401050789      20.887908931698774      13.994327495621715
   533   2       17.26609982486865      20.359281961471105      14.415800350262696
   534   1      17.330392294220665      20.652169877408056      15.144448336252189
   535   1      16.823196147110334      19.716357267950958      14.472949211908929
   536   2      18.230486865148858      20.144973730297725      13.972896672504378
   537   1      18.144763572679505       19.86637302977233      13.244248686514885
   538   1        18.6662469352014      20.809329246935196      13.922891418563925
   539   3      18.701964973730298      19.473474605954461      14.558672504378283
   540   1      19.294884413309983      19.352033274956217       14.27292819614711
   541   1      21.930875656742558      30.931821366024511      6.6649859894921191
   542   2      21.266520140105076      31.260427320490372      6.4006725043782833
   543   1      20.909339754816109      30.724656742556917       5.936338003502625
   544   1      20.795042031523643      31.381868651488617      7.0150227670753056
   545   2      21.473684763572678      32.181952714535903      5.8720455341506117
   546   1      21.845152364273204      32.696292469352009        6.33638003502627
   547   1      21.959450087565671      32.039080560420317      5.2505516637478094
   548   3      20.602164623467601      32.560563922942201      5.5434395796847635
   549   1      20.745036777583184      33.124908931698769      5.2148336252189145
   550   1      32.203383537653238      22.023742556917686      14.615821366024514
   551   2      32.924887915936949      21.752285464098069      14.751549912434324
   552   1      33.353504378283709      22.352348511383536      15.030150612959718
   553   1      32.867739054290716      21.216514886164624      15.330182136602453
   554   2      33.353504378283709      21.316525394045534      13.858598949211906
   555   1      32.903457092819615      20.730749562171631      13.587141856392293
   556   1      33.396366024518386      21.866583187390543      13.279966725043783
   557   3      34.275029772329248      20.987919439579688      14.080050788091068
   558   1      34.532199649737301       20.72360595446585      13.515705779334498
   559   1      34.660784588441331      29.181637478108581      33.946423817863398
   560   2      34.260742556917691      28.738733800350257      34.446476357267947
   561   1      34.782225919439576      28.281542907180388      34.817943957968474
   562   1      33.946423817863398      29.217355516637479      34.989390542907181
   563   2      33.496376532399303      28.167245183887918      33.939280210157619
   564   1      32.996323992994746      28.638723292469354      33.560669001751315
   565   1      33.832126094570931      27.695767075306474      33.389222416812608
   566   3       33.01061120840631      27.602900175131346      34.617922942206654
   567   1      32.546276707530652      27.252863397548161      34.289316987740797
   568   1      21.387961471103328      9.1723922942206642      28.452989492119084
   569   2      21.766572679509633      9.7367373029772306      28.838744308231167
   570   1      21.223658493870403      10.143922942206654      29.245929947460596
   571   1      22.230907180385291      9.3938441330998241      29.374514886164622
   572   2      22.330917688266197      10.365374781085816      28.167245183887918
   573   1      22.859544658493871       9.936758318739054      27.767203152364271
   574   1      21.852295971978986      10.701124343257442      27.631474605954462
   575   3      22.795252189141856      11.072591943957969       28.71015936952714
   576   1      23.138145359019262      11.458346760070052      28.274399299474606
   577   1      2.3359597197898418      1.1858388791593695      17.730434325744309
   578   2       2.157369527145359      1.4215779334500875      18.451938704028024
   579   1      1.4215779334500875      1.7073222416812608      18.430507880910682
   580   1      2.1502259194395794     0.78579684763572677      18.916273204903678
   581   2       2.864586690017513      2.1645131348511382       18.79483187390543
   582   1      3.5932346760070049      1.8716252189141858      18.801975481611205
   583   1       2.864586690017513      2.7931506129597201      18.316210157618215
   584   3       2.593129597197898      2.4431138353765323       19.72350087565674
   585   1      3.0431768826619958      2.9003047285464096      19.930665499124338
   586   1      35.310852889667245      38.854082311733798      15.551633975481609
   587   2      34.667928196147109      39.289842381786343      15.594495621716286
   588   1      34.732220665499128      39.854187390542904      15.051581436077058
   589   1      34.060721541155857      38.839795096322248      15.380187390542908
   590   2      34.532199649737301      39.689884413309983      16.587457092819616
   591   1      34.482194395796846      39.111252189141858      17.116084063047285
   592   1      35.153693520140102      40.139931698774078      16.794621716287214
   593   3      33.696397548161116      40.247085814360773      16.594600700525394
   594   1      33.624961471103326      40.497112084063048      17.216094570928199
   595   1      28.603005253940445      25.081206654991242      29.081626970227667
   596   2      28.295830122591944       25.07406304728546      29.803131348511382
   597   1      28.474420315236422      25.759849387040283      30.138880910683014
   598   1      27.510033274956218      25.052632224168125      29.724551663747807
   599   2      28.660154115586689      24.231117338003504      30.367476357267954
   600   1      28.481563922942211      23.552474605954465      30.010295971978984
   601   1      29.453094570928201       24.25969176882662      30.431768826619962
   602   3      28.245824868651489      24.266835376532399        31.2818581436077
   603   1      28.481563922942211      23.738208406304725      31.624751313485106
   604   1      19.944952714535901      3.6075218914185641      14.608677758318739
   605   2      20.359281961471105      3.9504150612959719      15.173022767075308
   606   1      20.495010507880913      4.6933502626970229      14.937283712784589
   607   1      19.902091068301225      3.9932767075306486      15.808803852889669
   608   2      21.273663747810858      3.4146444833625216      15.373043782837128
   609   1      21.116504378283711      2.6717092819614709      15.594495621716286
   610   1      21.723711033274952      3.3717828371278453      14.715831873905428
   611   3      21.773716287215411      3.9004098073555173      16.101691768826619
   612   1      22.338061295971972      3.5575166374781086      16.208845884413311
   613   1      36.818154115586687      32.767728546409806      31.131842381786335
   614   2       37.10389842381786      33.174914185639231       31.73904903677758
   615   1      36.603845884413303      33.774977232924698       31.86763397548161
   616   1      37.068180385288969      32.710579684763573      32.374830122591945
   617   2      38.111147110332752      33.510663747810852      31.546171628721542
   618   1      38.589768826619967      32.903457092819615      31.410443082311733
   619   1      38.132577933450087      33.974998248686518      30.903246935201395
   620   3      38.425465849387038      34.032147110332751      32.346255691768825
   621   1      39.054103327495618      34.239311733800349      32.210527145359023
   622   1      21.080786339754816      9.2866900175131342      4.5361908931698762
   623   2      20.859334500875658      9.8510350262697024       5.021956217162872
   624   1      21.509402802101576      10.208215411558667      5.2862697022767078
   625   1      20.459292469352015       10.38680560420315      4.6004833625218922
   626   2      20.252127845884413      9.4581366024518392      5.8291838879159368
   627   1      19.609203152364277      9.1009562171628726      5.5434395796847635
   628   1      20.659313485113834      8.9152224168126093      6.2435131348511375
   629   3      19.987814360770578      10.222502626970225      6.4292469352014008
   630   1      19.616346760070055      9.9581891418563924      6.9292994746059531
   631   1      28.202963222416809      6.0292049036777575      24.302553415061297
   632   2      27.988654991243429      6.2220823117338009      23.581049036777586
   633   1      27.488602451838872      5.6648809106830127        23.3310227670753
   634   1      27.574325744308229      6.8935814360770573      23.623910683012255
   635   2      28.845887915936952      6.3220928196147108      22.930980735551664
   636   1      29.331653239929945      6.8792942206654972      23.202437828371277
   637   1       29.25307355516637      5.6434500875656735      22.902406304728547
   638   3      28.517281961471102      6.5578318739054291      22.009455341506129
   639   1      29.060196147110325      6.6149807355516641      21.616556917688264
   640   1      19.030570928196148      22.352348511383536      38.461183887915929
   641   2      18.923416812609457      22.788108581436077      37.825402802101578
   642   1      18.144763572679505      22.909549912434322      37.753966725043782
   643   1      19.252022767075307      23.495325744308229      37.961131348511387
   644   2      19.344889667250435      22.316630472854644      36.953882661996502
   645   1      20.116399299474605      22.188045534150611       37.04674956217162
   646   1       19.00914010507881      21.602269702276708      36.832441330998243
   647   3      19.173443082311735      22.909549912434322      36.153798598949209
   648   1       19.43775656742557      22.602374781085814       35.61802802101576
   649   1      37.939700525394045      30.674651488616458     0.18573380035026271
   650   2      37.282488616462352      30.988970227670755      40.711420315236431
   651   1      37.253914185639232      30.853241681260943      39.932767075306479
   652   1      36.682425569176878       30.59607180385289     0.23573905429071806
   653   2      37.225339754816112      32.046224168126095     0.15001576182136603
   654   1      37.268201401050781      32.160521891418561     0.92866900175131351
   655   1      37.839690017513135      32.431978984238178      40.618553415061299
   656   3      36.360963222416807      32.403404553415058      40.575691768826623
   657   1      36.346676007005257      33.060616462346758      40.725707530647988
   658   1      1.1144028021015762      24.431138353765327       31.31043257443082
   659   2      1.6144553415061296      24.895472854640982      31.689043782837128
   660   1      1.9287740805604205      24.481143607705778      32.281963222416813
   661   1      2.2073747810858144      25.059775831873903      31.188991243432572
   662   2      1.1286900175131349      25.795567425569175      32.031936952714538
   663   1     0.81437127845884416      26.195609457092818      31.424730297723293
   664   1      0.5286269702276708      25.616977232924693       32.52484588441331
   665   3      1.8073327495621716      26.367056042031521      32.510558669001753
   666   1      1.4858704028021017      26.917113835376533      32.717723292469344
   667   1      7.4936444833625195      28.352978984238174      6.1863642732049033
   668   2      7.4364956217162872      28.888749562171629       5.622019264448336
   669   1      6.8078581436077048      29.338796847635724      5.7791786339754818
   670   1      8.0651330998248678      29.360227670753066      5.6720245183887918
   671   2      7.3650595446584921      28.417271453590189      4.6504886164623453
   672   1      8.0008406304728563      27.967224168126094      4.5147600700525397
   673   1      6.7292784588441332      27.945793345008756      4.6147705779334505
   674   3      7.2936234676006997      29.145919439579682      3.9575586690017519
   675   1      7.2436182136602447      28.838744308231167      3.3574956217162861
   676   1      30.396050788091067      34.853661996497365      15.108730297723294
   677   2      29.653115586690017      34.932241681260948      15.330182136602453
   678   1      29.624541155866897      34.839374781085802      16.115978984238179
   679   1      29.438807355516644      35.682320490367779      15.180166374781084
   680   2      29.017334500875656      34.232168126094571      14.808698774080561
   681   1      29.067339754816107      34.332178633975481      14.030045534150611
   682   1      29.245929947460596      33.482089316987746      14.965858143607706
   683   3       28.07437828371279      34.367896672504379      15.130161120840629
   684   1      27.688623467600696      33.917849387040285      14.801555166374779
   685   1      28.881605954465847     0.75007880910683011      32.903457092819615
   686   2      28.910180385288964     0.28574430823117342      32.274819614711035
   687   1       29.59596672504378      40.675702276707533      32.310537653239926
   688   1      28.338691768826621      40.539973730297724      32.346255691768825
   689   2      28.817313485113832     0.85723292469351997      31.367581436077053
   690   1      28.131527145359019      1.2501313485113834        31.3532942206655
   691   1      29.395945709281968        1.39300350262697       31.31043257443082
   692   3      28.867318739054294     0.22145183887915934      30.588928196147108
   693   1      28.810169877408061     0.58577583187390547      30.031726795096322
   694   1      26.802816112084056      5.2148336252189145      14.851560420315236
   695   2      26.124173380035025       5.293413309982486      14.480092819614713
   696   1      26.209896672504378      4.9790945709281962      13.758588441330994
   697   1      25.588402802101577       4.857653239929947      14.858704028021016
   698   2      25.824141856392298        6.32923642732049      14.437231173380034
   699   1      25.752705779334494      6.6292679509632224      15.158735551663746
   700   1      26.374199649737303      6.7649964973730281      14.058619964973728
   701   3      24.952621716287215       6.386385288966725       13.94432224168126
   702   1      24.781175131348508       7.036453590192643      13.915747810858143
   703   1      34.689359019264451      19.287740805604205      2.7645761821366022
   704   2      35.475155866900181      19.280597197898423       2.757432574430823
   705   1      35.696607705779336      19.087719789842382      2.0216409807355515
   706   1      35.725182136602456      20.009245183887916      2.8931611208406305
   707   2      35.860910683012257      18.587667250437828      3.4860805604203149
   708   1       35.61802802101576       18.78054465849387      4.2147285464098072
   709   1      35.596597197898426      17.851875656742553      3.3432084063047292
   710   3      36.861015761821363      18.601954465849381       3.436075306479859
   711   1      37.089611208406303      18.166194395796847      3.9004098073555173
   712   1      2.6002732049036772      3.1360437828371275      32.974893169877397
   713   2      2.0859334500875653      2.5716987740805597      32.796302977232926
   714   1      2.3216725043782835      2.2502364273204902      32.110516637478113
   715   1       2.157369527145359      2.0073537653239932      33.346360770577931
   716   2      1.0786847635726795      2.9574535901926438      32.746297723292464
   717   1     0.87152014010507872      3.2789159369527145      33.432084063047284
   718   1      1.0286795096322241      3.5217985989492111      32.196239929947453
   719   3     0.46433450087565675      2.1930875656742557      32.510558669001753
   720   1      40.632840630472856      2.4502574430823119      32.474840630472855
   721   1      4.7862171628721546      26.538502626970228      25.359807355516633
   722   2      4.6862066549912438      26.052737302977228      24.752600700525392
   723   1      5.0505306479859895      26.367056042031521      24.131106830122594
   724   1      5.0576742556917686      25.381238178633975      24.924047285464098
   725   2      3.6360963222416811      25.881290718038532      24.559723292469354
   726   1      3.2789159369527145      25.574115586690016      25.195504378283715
   727   1      3.2646287215411562      26.567077057793345      24.395420315236425
   728   3      3.5575166374781086      25.259796847635727      23.773926444833627
   729   1      2.8931611208406305      25.166929947460599      23.666772329246935
   730   1      6.6649859894921191      40.047064798598953      40.168506129597198
   731   2      6.1220718038528892      40.589978984238179      40.004203152364269
   732   1      5.9934868651488618      40.561404553415066      39.225549912434325
   733   1       5.457716287215411      40.368527145359025      40.354239929947461
   734   2      6.4435341506129591     0.77865323992994739      40.339952714535904
   735   1      6.5792626970227666     0.77865323992994739     0.32146234676007091
   736   1      7.1221768826619964     0.98581786339754818      39.982772329246934
   737   3      5.7148861646234677      1.4358651488616465      40.104213660245179
   738   1      5.9291943957968458      2.0430718038528894      40.311378283712784
   739   1      13.165669001751313      19.530623467600702      38.082572679509632
   740   2      12.594180385288967      19.823511383537653      37.639669001751315
   741   1      11.908394045534152      19.687782837127841      38.011136602451835
   742   1      12.687047285464098      20.602164623467601      37.611094570928195
   743   2      12.615611208406303      19.387751313485115      36.646707530647987
   744   1      13.308541155866898      19.530623467600702      36.296670753064802
   745   1      12.522744308231172      18.601954465849381      36.689569176882657
   746   3      11.858388791593692      19.794936952714536      36.110936952714532
   747   1      11.886963222416814       19.50919264448336      35.503730297723287
   748   1      3.0360332749562167      27.338586690017511      15.544490367775833
   749   2      3.1431873905429071      26.724236427320491      15.065868651488616
   750   1      3.8932661996497369      26.745667250437833      14.815842381786338
   751   1      3.0646077057793342      26.067024518388791      15.501628721541154
   752   2      2.4359702276707531      26.752810858143608      14.251497373029775
   753   1      1.7001786339754814      26.738523642732044      14.515810858143608
   754   1      2.5288371278458843       27.41716637478109       13.83002451838879
   755   3      2.6145604203152364      25.952726795096318      13.658577933450086
   756   1      2.1716567425569178      25.981301225919434      13.158525394045533
   757   1      11.672654991243432      23.395315236427322      32.260532399299471
   758   2      12.244143607705778      22.909549912434322      32.481984238178633
   759   1      12.287005253940453      22.345204903677761      31.931926444833621
   760   1      12.922786339754817      23.309591943957965      32.446266199649742
   761   2      12.065553415061297      22.516651488616461      33.467802101576176
   762   1       12.01554816112084      23.095283712784589      33.996429071803853
   763   1       11.37976707530648      22.116609457092817      33.489232924693518
   764   3      12.822775831873905      21.895157618213659      33.696397548161116
   765   1      12.694190893169877      21.652274956217166      34.317891418563924
   766   1      18.337640980735554      35.689464098073557      10.358231173380034
   767   2      19.066288966725043      35.410863397548155      10.358231173380034
   768   1      19.073432574430822      34.767938704028026       10.82256567425569
   769   1      19.223448336252183       35.16083712784588      9.6295831873905406
   770   2      19.766362521891413      36.160942206654994      10.686837127845884
   771   1        19.7377880910683      36.796723292469352      10.222502626970225
   772   1      19.587772329246938       36.40382486865149      11.422628721541153
   773   3      20.687887915936955      35.753756567425569      10.679693520140106
   774   1      21.116504378283711      36.232378283712784      10.886858143607705
   775   1      15.951676007005254      12.665616462346758      22.352348511383536
   776   2      16.387436077057796      12.065553415061297      22.609518388791589
   777   1      16.544595446584935      11.608362521891419      21.980880910683013
   778   1      17.073222416812612      12.358441330998248      22.852401050788089
   779   2      15.880239929947457      11.522639229422065      23.395315236427322
   780   1      15.723080560420316        11.9941173380035      24.002521891418564
   781   1      15.187309982486862      11.236894921190894      23.131001751313487
   782   3      16.473159369527146      10.765416812609455      23.681059544658492
   783   1      16.144553415061296      10.429667250437829      24.166824868651489
   784   1       18.03760945709282      31.003257443082308      5.5077215411558669
   785   2      17.516126094570929      31.553315236427323      5.6863117338003502
   786   1      16.923206654991244      31.188991243432572      6.0649229422066551
   787   1      17.844732049036779      32.046224168126095      6.2006514886164625
   788   2      17.173232924693519      32.067654991243437      4.8005043782837129
   789   1      17.780439579684764      32.410548161120836      4.4290367775831871
   790   1      16.844626970227672      31.553315236427323      4.2861646234675996
   791   3      16.494590192644488      32.753441330998243      5.0791050788091061
   792   1      16.287425569176882      33.060616462346758      4.5147600700525397
   793   1      17.537556917688267      39.289842381786343      21.195084063047286
   794   2      17.544700525394045       39.56129947460596      21.923732049036772
   795   1      17.780439579684764      40.311378283712784      21.895157618213659
   796   1      16.801765323992996       39.56129947460596      22.180901926444836
   797   2      18.180481611208403      38.961236427320493      22.559513134851137
   798   1      17.937598949211907      38.211157618213662      22.566656742556916
   799   1      18.930560420315231      38.961236427320493      22.280912434325742
   800   3      18.159050788091069      39.354134851138355      23.488182136602447
   801   1      18.566236427320494      38.968380035026271      23.866793345008755
   802   1      25.516966725043783      28.660154115586689       19.66635201401051
   803   2      24.859754816112083      28.767308231173384      19.259166374781081
   804   1      24.309697022767075      28.281542907180388      19.566341506129596
   805   1      24.609728546409801      29.503099824868649       19.39489492119089
   806   2      25.024057793345008      28.581574430823117      18.209056042031524
   807   1      25.574115586690016      29.067339754816107       17.92331173380035
   808   1      25.274084063047283      27.838639229422068      18.094758318739053
   809   3       24.14539404553415      28.724446584938704      17.723290718038527
   810   1      24.266835376532399      28.603005253940445      17.073222416812612
   811   1      29.310222416812607       3.600378283712784       18.63767250437828
   812   2      29.303078809106829      3.3217775831873908      17.909024518388794
   813   1      29.531674255691769      3.9075534150612965      17.430402802101575
   814   1      29.860280210157612      2.7645761821366022      17.866162872154113
   815   2      28.331548161120843      2.9360227670753059      17.651854640980737
   816   1      28.117239929947456      2.3573905429071806      18.144763572679505
   817   1      27.781490367775831      3.5003677758318741      17.701859894921192
   818   3      28.374409807355516      2.5859859894921193      16.701754816112086
   819   1      27.760059544658489      2.3573905429071806      16.551739054290721
   820   1      3.2360542907180383      1.3644290718038528      23.895367775831872
   821   2      3.4146444833625216      1.8430507880910683      24.481143607705778
   822   1      3.8861225919439581      1.4430087565674257       24.97405253940455
   823   1      3.8432609457092819      2.4359702276707531      24.188255691768823
   824   2      2.5216935201401052      2.2002311733800353       24.97405253940455
   825   1      2.0573590192644482      2.5859859894921193      24.466856392294222
   826   1      2.1002206654991245      1.5930245183887917      25.266940455341501
   827   3      2.8002942206654993      2.8074378283712784       25.73127495621716
   828   1      2.2359492119089315      3.0217460595446584      26.031306479859893
   829   1      33.096334500875656      26.809959719789841      27.095704028021011
   830   2      32.481984238178633      26.424204903677754      26.802816112084056
   831   1      32.596281961471099      25.659838879159366      26.945688266199646
   832   1      31.846203152364271      26.645656742556913      27.210001751313484
   833   2      32.367686514886159       26.63136952714536       25.74556217162872
   834   1       32.26767600700525      27.402879159369522      25.624120840630475
   835   1      33.017754816112081      26.409917688266194       25.34552014010508
   836   3      31.567602451838873      26.109886164623461      25.409812609457092
   837   1      31.510453590192643      26.245614711033276      24.752600700525392
   838   1      17.987604203152365      39.489863397548156      35.760900175131347
   839   2       18.46622591943958      40.018490367775833      36.082362521891426
   840   1       18.85198073555166      40.382814360770574      35.496586690017516
   841   1       18.02332224168126      40.561404553415059      36.439542907180382
   842   2      19.152012259194397      39.539868651488618      36.782436077057795
   843   1      18.751970227670753      39.175544658493877      37.353924693520142
   844   1      19.587772329246938      38.989810858143606      36.410968476357269
   845   3      19.752075306479863      40.254229422066537      37.168190893169879
   846   1       20.16640455341506      39.939910683012265       37.58966374781086
   847   1      17.373253940455342      6.9221558669001739      5.9220507880910667
   848   2      18.080471103327497      6.5792626970227666      5.8934763572679509
   849   1       18.13761996497373      6.1077845884413318      6.5221138353765333
   850   1      18.094758318739053        6.11492819614711      5.2576952714535903
   851   2      18.866267950963223      7.3221978984238181      5.8720455341506117
   852   1      18.787688266199648      7.7936760070052529      5.2434080560420302
   853   1      18.830549912434325      7.7793887915936955      6.5149702276707533
   854   3      19.752075306479863      6.8364325744308232      5.8434711033274951
   855   1      20.230697022767075      7.3079106830122571      5.8363274956217159
   856   1      27.788633975481606      31.974788091068302      23.738208406304725
   857   2      27.159996497373033      31.589033274956218      23.488182136602447
   858   1      27.095704028021011        30.9389649737303       23.93108581436077
   859   1      26.524215411558668      32.031936952714538      23.645341506129597
   860   2      27.238576182136601      31.360437828371278      22.430928196147111
   861   1      27.317155866900173      32.024793345008746      22.009455341506129
   862   1      27.881500875656744      30.917534150612958      22.295199649737302
   863   3      26.409917688266194      30.860385288966729      22.159471103327494
   864   1      26.474210157618216      30.724656742556917      21.502259194395794
   865   1      18.709108581436077      6.3220928196147108      35.518017513134858
   866   2      19.366320490367777      6.0363485113835376      35.825192644483359
   867   1      19.602059544658495      5.4434290718038527      35.360858143607707
   868   1      19.916378283712785      6.6006935201401049      35.768043782837125
   869   2      19.223448336252183       5.729173380035026      36.846728546409814
   870   1      18.973422066549912        6.33638003502627      37.289632224168123
   871   1      18.659103327495622      5.1648283712784586      36.889590192644484
   872   3       20.09496847635727      5.3719929947460594      37.196765323992999
   873   1      19.987814360770578      5.1791155866900169      37.832546409807357
   874   1      15.444479859894919       4.364744308231173      31.531884413309978
   875   2      15.515915936952716      5.0362434325744312      31.131842381786335
   876   1      15.201597197898424      5.6077320490367777      31.567602451838873
   877   1      16.287425569176882      5.1934028021015752      31.067549912434327
   878   2      15.051581436077058      4.9576637478108578      30.160311733800352
   879   1      15.373043782837128       4.371887915936953      29.738838879159371
   880   1       14.27292819614711      4.7933607705779337      30.238891418563924
   881   3      15.158735551663746      5.8363274956217159      29.681690017513137
   882   1      14.858704028021016      5.7791786339754818      29.081626970227667
   883   1      7.1221768826619964      12.022691768826622      2.4931190893169877
   884   2      7.1364640980735548       12.65847285464098      2.0502154115586686
   885   1      6.7364220665499115      12.487026269702275      1.3858598949211909
   886   1      6.7221348511383541      13.215674255691768      2.4216830122591944
   887   2      8.1508563922942212      12.979935201401048      1.8430507880910683
   888   1      8.5294676007005243      13.129950963222417      2.5145499124343256
   889   1      8.5508984238178627      12.401302977232925      1.4715831873905429
   890   3      8.1079947460595445      13.794306479859896      1.2644185639229422
   891   1      8.7437758318739061      13.980040280210156      1.1429772329246937
   892   1        6.11492819614711      24.202542907180383      7.4722136602451847
   893   2      6.1292154115586683      23.838218914185642      6.7864273204903673
   894   1      6.1863642732049033      24.388276707530647      6.2220823117338009
   895   1      6.7864273204903673      23.409602451838879      6.7507092819614698
   896   2      5.2505516637478094      23.223868651488615      6.6578423817863399
   897   1      5.2005464098073544      22.680954465849386      7.2364746059544647
   898   1      4.5861961471103321      23.666772329246935      6.7007040280210139
   899   3      5.3005569176882652      22.773821366024521      5.7577478108581444
   900   1      4.7433555166374779      22.395210157618212      5.6934553415061302
   901   1      30.574640980735555      13.965753064798598      7.8865429071803854
   902   2      29.874567425569179      13.822880910683013      8.1865744308231161
   903   1      29.445950963222415      13.465700525394046      7.6293730297723279
   904   1      29.960290718038525      13.301397548161122      8.7723502626970227
   905   2      29.403089316987735      14.730119089316984      8.5366112084063062
   906   1      29.845992994746062      15.080155866900176      9.0866690017513143
   907   1      29.324509632224171      15.251602451838876      7.9365481611208404
   908   3      28.495851138353768      14.501523642732046       8.908078809106831
   909   1      28.217250437828369      15.080155866900176      9.1152434325744291
   910   1      31.617607705779339       24.31684063047285      15.780229422066547
   911   2      31.160416812609462       24.87404203152364      16.065973730297721
   912   1      30.917534150612958      25.324089316987742      15.458767075306479
   913   1      30.510348511383533      24.524005253940455      16.358861646234672
   914   2      31.667612959719786      25.452674255691772      16.823196147110334
   915   1      31.910495621716279      24.988339754816113      17.416115586690019
   916   1      32.317681260945712      25.795567425569175      16.516021015761819
   917   3      31.038975481611203       26.15989141856392       17.16608931698774
   918   1      31.374725043782835      26.509928196147108      17.630423817863399
   919   1      39.747033274956216      15.287320490367778      14.358651488616461
   920   2      39.711315236427318      15.373043782837128      15.130161120840629
   921   1      40.161362521891419      14.808698774080561      15.451623467600697
   922   1      40.054208406304731      16.065973730297721      15.308751313485113
   923   2      38.689779334500869      15.337325744308229      15.487341506129596
   924   1      38.261162872154117      15.901670753064797      15.144448336252189
   925   1      38.361173380035019      14.644395796847636      15.301607705779331
   926   3      38.696922942206655      15.451623467600697      16.487446584938699
   927   1      38.061141856392297      15.423049036777581      16.694611208406304
   928   1      15.787373029772329      18.501943957968475       6.172077057793345
   929   2      15.430192644483364      18.930560420315231      6.7149912434325723
   930   1      15.908814360770577       19.53776707530648      6.8792942206654972
   931   1      14.780124343257439      19.237735551663746      6.3935288966725041
   932   2      15.201597197898424      18.344784588441328      7.5936549912434312
   933   1      14.737262697022768       17.73757793345009      7.4079211908931688
   934   1      15.865952714535901       18.03760945709282      7.9079737302977229
   935   3      14.751549912434324      18.944847635726799      8.2651541155866894
   936   1      14.615821366024514      18.566236427320494      8.8009246935201411
   937   1      30.474630472854635       12.77277057793345      15.751654991243431
   938   2      30.910390542907177      13.308541155866898      15.387330998248684
   939   1      30.774661996497368      14.001471103327496      15.744511383537656
   940   1      31.667612959719786      13.129950963222417      15.508772329246934
   941   2      30.674651488616458      13.351402802101576      14.330077057793345
   942   1      30.803236427320495        12.6513292469352      13.994327495621715
   943   1      29.903141856392295       13.52284938704028      14.222922942206653
   944   3      31.246140105078805      14.058619964973728      13.908604203152361
   945   1      31.088980735551665      14.072907180385286      13.251392294220667
   946   1       37.78968476357268      25.824141856392298      7.3650595446584921
   947   2      38.275450087565673      26.181322241681258      6.8650070052539389
   948   1      37.839690017513135      26.667087565674255      6.4221033274956207
   949   1      38.761215411558666       26.63136952714536      7.2936234676006997
   950   2      38.818364273204907       25.45981786339755      6.2792311733800341
   951   1       39.23269352014011       24.97405253940455      6.7364220665499115
   952   1       38.31831173380035      25.009770577933448      5.8577583187390534
   953   3      39.425570928196144      25.959870402802096      5.6505936952714535
   954   1      39.754176882662001      25.495535901926441      5.2862697022767078
   955   1      27.159996497373033       3.764681260945709       37.23248336252189
   956   2      26.709949211908928      4.4004623467600705      37.218196147110334
   957   1       26.07416812609457      4.2361593695271456      36.789579684763567
   958   1      26.459922942206656       4.529047285464098      37.953987740805601
   959   2      27.245719789842383      5.2576952714535903      36.832441330998243
   960   1      27.888644483362519      5.4005674255691769      37.268201401050781
   961   1      27.502889667250436      5.1148231173380037      36.096649737302968
   962   3      26.624225919439578      6.0506357267950959      36.839584938704029
   963   1      26.974262697022763      6.5721190893169874      36.589558669001754
   964   1      5.2791260945709277      17.959029772329245      16.087404553415059
   965   2      5.8220402802101558      18.509087565674257      15.965963222416811
   966   1      5.7720350262697027      19.023427320490367      16.558882661996499
   967   1      6.5292574430823125      18.166194395796847      16.023112084063047
   968   2      5.6863117338003502      18.980565674255693      15.001576182136603
   969   1       5.729173380035026      18.451938704028024      14.422943957968476
   970   1       4.964807355516637      19.316315236427322      14.958714535901922
   971   3      6.3935288966725041      19.680639229422066      14.894422066549911
   972   1      6.2935183887915933      19.973527145359018      14.294359019264448
   973   1      18.287635726795099      16.115978984238179      3.9575586690017519
   974   2       18.13761996497373      15.387330998248684      4.1861541155866897
   975   1      18.701964973730298      15.180166374781084      4.6933502626970229
   976   1      17.458977232924692      15.401618213660248      4.5933397548161121
   977   2      18.087614711033275      14.715831873905428      3.3432084063047292
   978   1      17.523269702276703      14.944427320490369      2.8360122591943959
   979   1      18.773401050788092      14.715831873905428      2.9431663747810859
   980   3      17.894737302977227      13.787162872154115      3.6861015761821365
   981   1      17.866162872154113      13.379977232924693      3.1503309982486862
   982   1      11.551213660245185      5.7506042031523652      17.323248686514887
   983   2       12.22985639229422      5.8006094570928193        16.9374938704028
   984   1      12.687047285464098      6.3078056042031516      17.323248686514887
   985   1      12.579893169877408      5.0933922942206653      16.973211908931699
   986   2      12.058409807355515      6.1006409807355508      15.908814360770577
   987   1       11.59407530647986      5.5863012259194402      15.537346760070051
   988   1      11.701229422066548      6.8078581436077048      15.880239929947457
   989   3      12.958504378283713      6.1506462346760067      15.451623467600697
   990   1      12.837063047285463      6.3435236427320492      14.815842381786338
   991   1      36.489548161120837      19.130581436077058      36.911021015761825
   992   2      35.982352014010509      19.709213660245183      36.761005253940453
   993   1      35.546591943957964      19.480618213660247       36.14665499124343
   994   1      35.496586690017516      19.759218914185638      37.382499124343255
   995   2        36.5038353765324      20.637882661996493      36.575271453590197
   996   1      36.939595446584939      20.837903677758312      37.196765323992999
   997   1      36.989600700525394      20.566446584938703      35.953777583187396
   998   3      35.810905429071802      21.345099824868651      36.389537653239934
   999   1       36.14665499124343      21.916588441330994      36.268096322241682
  1000   1      17.608992994746057      18.923416812609457      9.0366637478108576
  1001   2      18.194768826619967      18.566236427320494      8.6509089316987744
  1002   1      18.716252189141859       19.12343782837128       8.450887915936951
  1003   1       18.55194921190893      18.087614711033275      9.1652486865148859
  1004   2       17.82330122591944       18.02332224168126      7.7936760070052529
  1005   1      17.294674255691767       17.48040805604203      8.0151278458844146
  1006   1      17.458977232924692      18.516231173380035      7.2936234676006997
  1007   3      18.609098073555167      17.587562171628722      7.3364851138353764
  1008   1      18.359071803852885      17.258956217162872      6.8078581436077048
  1009   1      36.096649737302968      9.1509614711033258      26.417061295971973
  1010   2      35.703751313485107       9.715306479859894      26.045593695271453
  1011   1      35.896628721541155      10.401092819614709      26.381343257443078
  1012   1      35.975208406304731      9.7367373029772306        25.3026584938704
  1013   2      34.639353765323996      9.5295726795096325      26.081311733800344
  1014   1      34.467907180385289      8.8366427320490377       25.74556217162872
  1015   1      34.389327495621707      9.5009982486865159      26.831390542907172
  1016   3      34.175019264448331      10.279651488616462      25.588402802101577
  1017   1      33.517807355516638      10.151066549912434      25.616977232924693
  1018   1      17.816157618213662      28.881605954465847      20.630739054290718
  1019   2      17.608992994746057      29.438807355516644      21.137935201401046
  1020   1      16.930350262697026      29.210211908931697      21.473684763572678
  1021   1      18.159050788091069      29.445950963222415      21.709423817863399
  1022   2      17.530413309982489      30.396050788091067      20.652169877408056
  1023   1      18.209056042031524      30.603215411558661      20.316420315236424
  1024   1      16.980355516637474      30.374619964973725       20.08068126094571
  1025   3      17.258956217162872      31.081837127845883      21.345099824868651
  1026   1      17.208950963222414      31.667612959719786      21.030781085814361
  1027   1      32.410548161120836       12.36558493870403      12.422733800350262
  1028   2      32.760584938704028      11.844101576182133      12.887068301225918
  1029   1      32.631999999999998      11.129740805604202      12.572749562171628
  1030   1      33.532094570928194      11.979830122591942      12.858493870402802
  1031   2       32.38197373029773       11.92268126094571      13.894316987740803
  1032   1      32.503415061295975      12.644185639229422      14.187204903677758
  1033   1         31.596176882662      11.786952714535902      13.908604203152361
  1034   3      32.846308231173381      11.229751313485114      14.458661996497373
  1035   1      32.603425569176885      11.286900175131347      15.080155866900176
  1036   1       36.24666549912434      15.415905429071801      37.132472854640987
  1037   2       36.04664448336252      15.987394045534151      36.646707530647987
  1038   1      35.875197898423814      15.651644483362519      35.953777583187396
  1039   1      35.375145359019257      16.308856392294221      36.911021015761825
  1040   2      36.832441330998243      16.723185639229424      36.553840630472855
  1041   1      36.996744308231172       17.03750437828371      37.253914185639232
  1042   1      37.496796847635714      16.387436077057796       36.28952714535901
  1043   3      36.525266199649742      17.430402802101575      35.910915936952712
  1044   1      37.025318739054292      17.880450087565674      35.860910683012257
  1045   1      4.7433555166374779      23.059565674255694      34.610779334500876
  1046   2      4.6504886164623453      22.402353765323994      34.203593695271451
  1047   1      5.3219877408056044      22.280912434325742      33.803551663747804
  1048   1      4.5790525394045538      21.809434325744309      34.717933450087557
  1049   2      3.7932556917688269      22.466646234676006      33.546381786339751
  1050   1      3.1360437828371275      22.602374781085814      33.967854640980732
  1051   1       3.871835376532399      23.073852889667247      33.039185639229423
  1052   3      3.7218196147110332      21.602269702276708      33.039185639229423
  1053   1      3.1860490367775833      21.652274956217166      32.639143607705776
  1054   1      19.452043782837126      22.823826619964972       32.38197373029773
  1055   2      18.673390542907182      22.873831873905424      32.310537653239926
  1056   1      18.444795096322242      22.302343257443081       31.82477232924693
  1057   1      18.359071803852885      22.709528896672502      33.017754816112081
  1058   2      18.380502626970227      23.852506129597199      31.960500875656741
  1059   1      18.630528896672505      24.409707530647989      32.460553415061291
  1060   1      18.709108581436077      24.002521891418564       31.25328371278459
  1061   3      17.373253940455342      23.873936952714537      31.889064798598945
  1062   1      17.208950963222414      24.481143607705778      31.667612959719786
  1063   1      21.345099824868651      24.188255691768823      19.409182136602453
  1064   2      22.073747810858144         23.988234676007      19.609203152364277
  1065   1      22.030886164623467      23.609623467600702      20.302133099824868
  1066   1      22.330917688266197      23.466751313485112        19.0805761821366
  1067   2       22.71667250437828      24.852611208406305      19.659208406304725
  1068   1      22.745246935201401      25.224078809106832      18.959134851138355
  1069   1      22.445215411558664      25.374094570928197      20.187835376532401
  1070   3      23.638197898423819       24.54543607705779      19.923521891418563
  1071   1       24.03109632224168      25.095493870402795       19.95209632224168
  1072   1      13.358546409807357      25.166929947460599      13.179956217162871
  1073   2       13.61571628721541       25.63126444833625      13.744301225919436
  1074   1      14.380082311733799      25.781280210157622      13.601429071803851
  1075   1      13.237105078809108      26.317050788091066      13.687152364273205
  1076   2      13.465700525394046      25.181217162872155      14.715831873905428
  1077   1      12.701334500875657      25.031201401050783      14.837273204903678
  1078   1      13.851455341506128      24.488287215411557      14.765837127845884
  1079   3      13.815737302977231      25.816998248686517      15.415905429071801
  1080   1       13.71572679509632      25.516966725043783      16.015968476357269
  1081   1      27.560038528896669      28.317260945709279      8.7580630472854644
  1082   2      27.224288966725045      28.610148861646231      8.1151383537653228
  1083   1      26.859964973730289      28.017229422066546      7.7436707530647979
  1084   1      26.659943957968476      29.110201401050784       8.343733800350261
  1085   2      27.952936952714531      29.095914185639234       7.486500875656743
  1086   1      28.317260945709279      29.681690017513137       7.872255691768828
  1087   1      28.517281961471102      28.581574430823117      7.2650490367775813
  1088   3      27.481458844133098      29.453094570928201      6.6721295971978982
  1089   1      27.952936952714531      29.745982486865149      6.2863747810858142
  1090   1      19.987814360770578      12.179851138353765      9.3724133099824876
  1091   2      20.302133099824868        12.8942119089317      9.3652697022767075
  1092   1      20.909339754816109       12.87278108581436      8.8580735551663743
  1093   1      19.766362521891413      13.387120840630475      9.0580945709281959
  1094   2      20.602164623467601       13.20138704028021      10.358231173380034
  1095   1      19.987814360770578       13.20138704028021      10.843996497373031
  1096   1      21.137935201401046      12.694190893169877      10.651119089316985
  1097   3      21.009350262697019      14.115768826619965      10.286795096322239
  1098   1      21.195084063047286      14.294359019264448      10.915432574430822
  1099   1      25.509823117338005      27.624330998248688      22.516651488616461
  1100   2       26.11702977232925      27.795777583187387      22.059460595446584
  1101   1       26.40277408056042      28.495851138353768      22.288056042031521
  1102   1      26.681374781085811      27.267150612959718      22.202332749562174
  1103   2      25.838429071803855      27.795777583187387      21.016493870402805
  1104   1      25.552684763572678      27.095704028021011      20.802185639229418
  1105   1      25.266940455341501      28.331548161120843      20.880765323992993
  1106   3      26.652800350262694      28.024373029772327      20.466436077057796
  1107   1      26.459922942206656      28.024373029772327      19.823511383537653
  1108   1       23.93108581436077      27.109991243432574      6.6364115586690025
  1109   2      24.002521891418564      26.409917688266194      6.3078056042031516
  1110   1      23.409602451838879      26.324194395796845      5.7934658493870401
  1111   1      24.666877408056042      26.409917688266194      5.8791891418563926
  1112   2      24.016809106830127       25.63126444833625      7.0578844133099823
  1113   1      24.609728546409801      25.738418563922941      7.5579369527145355
  1114   1      23.338166374781085      25.638408056042032      7.4793572679509612
  1115   3      24.102532399299477      24.745457092819613      6.5864063047285457
  1116   1      24.102532399299477      24.266835376532399      7.0650280210157614
  1117   1      25.195504378283715      5.1862591943957961      11.794096322241682
  1118   2      25.095493870402795      5.8577583187390534      11.401197898423819
  1119   1      25.138355516637475      6.4435341506129591      11.929824868651487
  1120   1      25.709844133099825      5.9434816112084068      10.915432574430822
  1121   2      24.159681260945707      5.8577583187390534      10.858283712784589
  1122   1      24.138250437828372      5.2576952714535903      10.343943957968477
  1123   1      23.552474605954465      5.7577478108581444       11.35833625218914
  1124   3       24.07395796847636      6.7364220665499115      10.379661996497374
  1125   1      23.488182136602447      6.7221348511383541      10.051056042031524
  1126   1       12.25128721541156      2.0287845884413307      31.589033274956218
  1127   2       12.12984588441331      2.6717092819614709      32.017649737302975
  1128   1       12.12984588441331      2.4502574430823119      32.774872154115592
  1129   1      12.744196147110333      3.1503309982486862      31.917639229422068
  1130   2      11.201176882661997      3.1503309982486862       31.73904903677758
  1131   1      11.215464098073555       3.350352014010507      30.974683012259192
  1132   1      10.586826619964972      2.6502784588441326      31.839059544658493
  1133   3      11.079735551663747      3.9647022767075311      32.317681260945712
  1134   1      10.501103327495619      4.2504465849387039      32.131947460595441
  1135   1      22.930980735551664      26.224183887915935      33.524950963222402
  1136   2       23.60247985989492      25.852716287215415      33.360647985989495
  1137   1      24.195399299474605      26.331338003502626      33.567812609457093
  1138   1      23.645341506129597       25.21693520140105      33.832126094570931
  1139   2      23.645341506129597      25.574115586690016      32.317681260945712
  1140   1       23.04527845884413       25.10263747810858       32.12480385288967
  1141   1      23.595336252189139       26.21704028021016      31.853346760070046
  1142   3      24.524005253940455       25.10263747810858       32.15337828371279
  1143   1      24.538292469352015      24.938334500875655      31.503309982486861
  1144   1      8.7223450087565677      39.418427320490366      12.237000000000002
  1145   2      9.0366637478108576      40.132788091068306      12.165563922942207
  1146   1      9.4152749562171625      40.154218914185648      11.472633975481612
  1147   1      8.4437443082311745       40.64712784588442      12.115558669001752
  1148   2      9.6938756567425575      40.354239929947461      12.994222416812606
  1149   1      9.3009772329246907      40.318521891418563      13.680008756567423
  1150   1      10.279651488616462      39.818469352014006      13.037084063047285
  1151   3      10.079630472854641     0.47862171628721889      12.858493870402802
  1152   1       10.48681611208406     0.60006304728546844      13.379977232924693
  1153   1      36.696712784588442      13.751444833625218      33.467802101576176
  1154   2      36.761005253940453      14.380082311733799      33.932136602451841
  1155   1      36.518122591943964      15.001576182136603      33.517807355516638
  1156   1      36.260952714535904       14.28007180385289      34.532199649737301
  1157   2      37.775397548161116      14.494380035026269      34.282173380035026
  1158   1      38.011136602451835      13.858598949211906      34.682215411558673
  1159   1      38.275450087565673      14.587246935201399      33.667823117337996
  1160   3      37.811115586690015      15.315894921190894      34.867949211908936
  1161   1      38.454040280210158      15.380187390542908      35.075113835376534
  1162   1      11.551213660245185      16.680323992994747      18.837693520140107
  1163   2      11.958399299474603      17.337535901926444      18.687677758318735
  1164   1      11.472633975481612      17.944742556917689      18.830549912434325
  1165   1       12.53703152364273       17.38039754816112      19.223448336252183
  1166   2       12.34415411558669      17.337535901926444      17.680429071803854
  1167   1      12.808488616462347      16.723185639229424      17.558987740805602
  1168   1      11.744091068301223      17.287530647985989      17.158945709281962
  1169   3      12.844206654991241      18.201912434325745      17.537556917688267
  1170   1      13.072802101576183      18.194768826619967      16.908919439579687
  1171   1       23.60247985989492      6.7221348511383541      20.930770577933451
  1172   2      23.473894921190894       7.193612959719788      21.545120840630474
  1173   1      22.780964973730295      7.5507933450087572      21.423679509632226
  1174   1      23.395315236427322      6.7364220665499115      22.180901926444836
  1175   2      24.281122591943955      7.9008301225919437      21.666562171628719
  1176   1      24.966908931698775       7.529362521891418      21.766572679509633
  1177   1       24.35970227670753      8.3508774080560428      21.009350262697019
  1178   3       24.07395796847636      8.4866059544658494      22.459502626970227
  1179   1      24.581154115586685      8.9223660245183893      22.516651488616461
  1180   1      15.430192644483364      1.5215884413309979      26.281332749562168
  1181   2      15.030150612959718       1.814476357267951      25.681269702276708
  1182   1      14.401513134851136      2.1859439579684765       25.97415761821366
  1183   1      15.473054290718038      2.3645341506129598      25.331232924693516
  1184   2      14.751549912434324      1.0358231173380035      24.981196147110332
  1185   1      15.394474605954464     0.66435551663747794      24.709739054290722
  1186   1      14.308646234676006     0.48576532399299477       25.34552014010508
  1187   3      14.230066549912435      1.4501523642732048      24.231117338003504
  1188   1       14.06576357267951      0.9572434325744309      23.809644483362522
  1189   1      8.4294570928196144      20.559302977232925      22.216619964973724
  1190   2      8.0794203152364279      20.809329246935196      21.566551663747809
  1191   1      7.8079632224168112      20.180691768826616      21.180796847635726
  1192   1      7.4507828371278455      21.237945709281959      21.780859894921189
  1193   2      8.7652066549912444      21.387961471103328      20.959345008756571
  1194   1      9.0366637478108576      22.009455341506129      21.359387040280211
  1195   1      9.3938441330998241      20.952201401050786      20.759323992994748
  1196   3      8.2794413309982495      21.687992994746061      20.130686514886161
  1197   1      8.7152014010507877      22.038029772329249      19.766362521891413
  1198   1      16.494590192644488      22.552369527145355      20.945057793345008
  1199   2      16.844626970227672      23.102427320490371      20.509297723292466
  1200   1      16.551739054290721      23.802500875656744      20.745036777583184
  1201   1      17.608992994746057      23.102427320490371      20.695031523642733
  1202   2      16.687467600700522      22.930980735551664      19.459187390542908
  1203   1      16.966068301225921      22.223763572679509      19.252022767075307
  1204   1      15.908814360770577      22.923837127845886      19.287740805604205
  1205   3      17.144658493870399       23.65962872154115      18.944847635726799
  1206   1      17.030360770577929      23.538187390542905      18.287635726795099
  1207   1      36.303814360770581      7.2936234676006997       20.85219089316988
  1208   2      36.210947460595442      7.9008301225919437      20.366425569176883
  1209   1      35.460868651488617      7.8793992994746054      20.102112084063048
  1210   1      36.282383537653239      8.5580420315236427      20.780754816112083
  1211   2      36.918164623467604      7.8508248686514879       19.55205429071804
  1212   1       37.66109982486865      7.8651120840630462      19.830654991243431
  1213   1      36.832441330998243      7.1793257443082306      19.144868651488618
  1214   3      36.761005253940453      8.6437653239929944      18.944847635726799
  1215   1      37.211052539404548      8.6009036777583177      18.444795096322242
  1216   1      4.2290157618213664      5.2291208406304728      16.251707530647987
  1217   2      4.4076059544658497      5.9863432574430808      16.258851138353766
  1218   1       3.936127845884414        6.33638003502627      16.787478108581436
  1219   1      5.1433975481611194      6.0577793345008759      16.523164623467604
  1220   2      4.2933082311733797      6.4221033274956207      15.273033274956214
  1221   1      4.7647863397548162      6.0577793345008759      14.758693520140101
  1222   1       3.550373029772329        6.33638003502627      15.015863397548161
  1223   3       4.529047285464098      7.4007775831873897      15.330182136602453
  1224   1      4.4504676007005255      7.6508038528896654      14.715831873905428
  1225   1      6.3078056042031516      28.745877408056039      38.989810858143606
  1226   2      6.8721506129597181      28.374409807355516      39.382709281961468
  1227   1      6.8650070052539389      27.624330998248688      39.146970227670757
  1228   1      7.5650805604203146      28.674441330998246      39.154113835376528
  1229   2      6.7364220665499115      28.467276707530651      40.454250437828371
  1230   1      6.7364220665499115      29.231642732049028      40.668558669001747
  1231   1      6.0292049036777575      28.167245183887918      40.668558669001747
  1232   3      7.4793572679509612      27.974367775831873      0.1214413309982519
  1233   1       7.372203152364273      28.038660245183888     0.78579684763573343
  1234   1      35.518017513134858      39.739889667250431      37.725392294220661
  1235   2      35.968064798598952      39.711315236427318      37.089611208406303
  1236   1       36.04664448336252      40.447106830122593      36.818154115586687
  1237   1      36.682425569176878      39.475576182136599      37.318206654991243
  1238   2      35.546591943957964      39.039816112084061      36.346676007005257
  1239   1      35.468012259194396       38.31831173380035      36.639563922942202
  1240   1      34.817943957968474      39.289842381786343      36.132367775831867
  1241   3      36.153798598949209      39.039816112084061      35.546591943957964
  1242   1      35.882341506129592      38.618343257443073      35.096544658493876
  1243   1      13.094232924693518      21.659418563922937      18.144763572679505
  1244   2      12.637042031523642      22.259481611208404      18.344784588441328
  1245   1       12.98707880910683      22.638092819614712      18.944847635726799
  1246   1      12.615611208406303      22.759534150612961       17.73757793345009
  1247   2      11.644080560420312      21.916588441330994      18.609098073555167
  1248   1      11.315474605954465      21.530833625218911      18.001891418563922
  1249   1      11.679798598949214      21.409392294220666      19.216304728546408
  1250   3      11.094022767075305       22.71667250437828      18.866267950963223
  1251   1      10.479672504378286      22.488077057793344      19.023427320490367
  1252   1       7.815106830122593      21.002206654991237      9.0080893169877392
  1253   2      7.7365271453590188       21.39510507880911      9.6795884413309992
  1254   1      7.5865113835376539      22.152327495621712      9.4938546409807358
  1255   1      7.0936024518388789      21.123647985989493      10.043912434325744
  1256   2      8.6223345008756578      21.295094570928192      10.293938704028021
  1257   1      8.7580630472854644      20.537872154115586      10.458241681260946
  1258   1      9.2581155866900176      21.573695271453591      9.9081838879159374
  1259   3      8.4794623467600712      21.816577933450088       11.14402802101576
  1260   1      9.0366637478108576      21.745141856392294      11.508352014010507
  1261   1      9.4652802101576157      33.874987740805601      29.353084063047287
  1262   2      10.115348511383537      34.232168126094571      29.117345008756566
  1263   1      10.672549912434325      33.674966725043781      29.017334500875656
  1264   1      9.9724763572679507      34.539343257443086      28.402984238178632
  1265   2      10.415380035026271      34.996534150612959      29.817418563922946
  1266   1      9.8510350262697024      35.532304728546414      29.910285464098077
  1267   1      10.551108581436079      34.675071803852887      30.531779334500879
  1268   3       11.25832574430823      35.425150612959719      29.474525394045536
  1269   1      11.436915936952712      35.896628721541155       29.92457267950963
  1270   1      28.288686514886162      34.839374781085802      35.317996497373031
  1271   2      27.631474605954462      34.682215411558673      35.710894921190892
  1272   1      27.031411558668996      34.967959719789839      35.289422066549911
  1273   1      27.545751313485116      33.896418563922943      35.725182136602456
  1274   2      27.667192644483361      35.089401050788091      36.710999999999999
  1275   1      28.281542907180388      34.796513134851146      37.111042031523645
  1276   1      27.760059544658489      35.882341506129592      36.682425569176878
  1277   3      26.802816112084056      34.867949211908936      37.175334500875657
  1278   1      26.845677758318736      35.132262697022767      37.796828371278465
  1279   1      23.131001751313487      13.229961471103328       14.06576357267951
  1280   2      23.816788091068304      13.587141856392293       13.94432224168126
  1281   1       23.93108581436077      13.608572679509633      13.165669001751313
  1282   1      23.738208406304725      14.337220665499123      14.187204903677758
  1283   2      24.609728546409801       13.07994570928196      14.465805604203153
  1284   1      24.466856392294222      13.058514886164625      15.237315236427317
  1285   1      24.666877408056042       12.32272329246935      14.215779334500874
  1286   3      25.474105078809103      13.565711033274958       14.28007180385289
  1287   1      25.959870402802096      13.237105078809108      14.601534150612959
  1288   1      39.225549912434325      24.809749562171625      15.365900175131348
  1289   2      39.118395796847629      25.281227670753065      14.758693520140101
  1290   1      39.318416812609449      26.009875656742555      14.980145359019263
  1291   1      39.625591943957971      25.066919439579678      14.194348511383536
  1292   2      38.096859894921188      25.231222416812606      14.401513134851136
  1293   1      37.911126094570925      24.495430823117339      14.194348511383536
  1294   1       37.58966374781086      25.445530647985986      14.980145359019263
  1295   3      38.003992994746064      25.852716287215415       13.61571628721541
  1296   1       37.36106830122592      25.809854640980738       13.40855166374781
  1297   1      17.394684763572677       35.91805954465849      35.653746059544659
  1298   2      17.901880910683008      35.696607705779336      35.103688266199647
  1299   1      18.573380035026268      35.503730297723287      35.460868651488617
  1300   1      17.616136602451842      35.032252189141857      34.775082311733804
  1301   2       18.03760945709282      36.468117338003509      34.360753064798594
  1302   1      17.351823117338004      36.653851138353758      34.025003502626966
  1303   1      18.316210157618215      37.132472854640987      34.703646234676008
  1304   3       18.69482136602452      36.139511383537659      33.674966725043781
  1305   1      18.773401050788092      36.639563922942202      33.224919439579686
  1306   1      0.5071961471103269      7.6936654991243421      21.416535901926448
  1307   2      40.539973730297724      7.5150753064798588      21.430823117338001
  1308   1      40.411388791593694      6.9650175131348506      20.880765323992993
  1309   1      40.389957968476359      7.1721821366024514      22.123753064798596
  1310   2      39.925623467600701      8.3937390542907178      21.280807355516636
  1311   1      40.068495621716281      8.9366532399299459      21.838008756567426
  1312   1       40.08992644483363       8.729488616462346      20.580733800350259
  1313   3      38.961236427320493      8.1151383537653228      21.302238178633971
  1314   1      38.596912434325738      8.6723397548161127      21.209371278458843
  1315   1      40.518542907180375       3.764681260945709     0.48576532399299138
  1316   2     0.13572854640980586      3.8432609457092819      40.611409807355514
  1317   1     0.61435026269702242      4.4647548161120838      40.697133099824867
  1318   1     0.59291943957968696      3.2074798598949208      40.539973730297724
  1319   2      40.261373029772322      3.9575586690017519      39.768464098073558
  1320   1      39.782751313485115      3.3432084063047292      39.697028021015768
  1321   1      39.804182136602449      4.6004833625218922      39.861330998248675
  1322   3    0.035718038528900896      4.0575691768826614      38.939805604203151
  1323   1      40.397101576182131      4.1361488616462339       38.41832224168126
  1324   1      3.6789579684763569      40.768569176882664      31.203278458844139
  1325   2      4.3218826619964972      0.4000420315236427      31.331863397548158
  1326   1      4.9433765323992995      40.704276707530646      31.246140105078805
  1327   1       4.371887915936953     0.93581260945709288      30.753231173380033
  1328   2      4.3004518388791588     0.87152014010507872      32.303394045534148
  1329   1      3.6718143607705778      1.3358546409807355      32.374830122591945
  1330   1      4.2433029772329247      0.3143187390542907      32.874882661996502
  1331   3      5.1505411558669003        1.39300350262697      32.424835376532393
  1332   1      5.1219667250437828      1.6716042031523646      33.039185639229423
  1333   1      28.903036777583189     0.17859019264448586      9.4224185639229425
  1334   2      28.681584938704024       40.41853239929948       9.929614711033274
  1335   1      27.945793345008756      40.204224168126096      9.7367373029772306
  1336   1        29.1387758318739      39.789894921190893      9.8081733800350275
  1337   2      28.760164623467599      40.775712784588443      10.944007005253939
  1338   1      29.495956217162863      0.2000210157618304      11.108309982486862
  1339   1      28.295830122591944     0.62149387040280391       11.05116112084063
  1340   3      28.460133099824869      40.032777583187382      11.558357267950964
  1341   1      28.510138353765328      40.268516637478108      12.186994746059542
  1342   1     0.37861120840630474      18.473369527145355      8.8294991243432577
  1343   2     0.92152539404553413      18.687677758318735      8.3080157618213661
  1344   1      1.0072486865148862      18.094758318739053      7.8008196147110347
  1345   1     0.62863747810858139      19.294884413309983      7.9008301225919437
  1346   2      1.8501943957968474      18.944847635726799      8.8009246935201411
  1347   1      1.7358966725043781       19.53776707530648      9.3081208406304725
  1348   1      2.1216514886164624      18.330497373029772      9.2081103327495608
  1349   3      2.5145499124343256      19.216304728546408      8.0937075306479862
  1350   1      3.0860385288966725      19.366320490367777      8.4080262697022743
  1351   1      8.8866479859894909      36.003782837127844       11.58693169877408
  1352   2      8.8366427320490377      35.782330998248689       12.32986690017513
  1353   1      8.4008826619964978      35.117975481611204      12.351297723292467
  1354   1      9.5581471103327509      35.589453590192647      12.579893169877408
  1355   2      8.4080262697022743      36.560984238178641      12.937073555166375
  1356   1      8.8437863397548142      37.218196147110334      12.901355516637478
  1357   1      7.6793782837127837      36.753861646234668      12.679903677758317
  1358   3      8.3508774080560428      36.232378283712784      13.887173380035025
  1359   1      8.0794203152364279      36.725287215411555      14.251497373029775
  1360   1      35.460868651488617      3.4646497373029765      30.374619964973725
  1361   2      34.910810858143606      3.7932556917688269      30.831810858143601
  1362   1      34.846518388791594      4.5504781085814363      30.617502626970225
  1363   1      34.225024518388793      3.4503625218914182      30.660364273204905
  1364   2      35.167980735551666      3.6861015761821365      31.874777583187388
  1365   1      35.232273204903684      2.9288791593695267      32.067654991243437
  1366   1      35.860910683012257      4.0361383537653239      32.031936952714538
  1367   3      34.439332749562169      4.1218616462346747      32.417691768826622
  1368   1      34.610779334500876      4.0504255691768822      33.067760070052536
  1369   1      5.1934028021015752       29.61025394045534      13.644290718038528
  1370   2      5.7077425569176885      30.160311733800352      13.444269702276708
  1371   1      5.8434711033274951      30.088875656742552       12.67276007005254
  1372   1      5.3577057793345002      30.860385288966729      13.551423817863395
  1373   2      6.6078371278458841      30.074588441330999      14.030045534150611
  1374   1      6.4578213660245183      30.138880910683014      14.801555166374779
  1375   1      6.9507302977232923       29.36737127845884      13.915747810858143
  1376   3      7.2436182136602447      30.803236427320495       13.73715761821366
  1377   1      7.8008196147110347      30.738943957968473      14.101481611208404
  1378   1      38.511189141856391      13.851455341506128      9.8653222416812607
  1379   2      38.232588441331004      14.572959719789841      9.9581891418563924
  1380   1      38.782646234676015      15.073012259194392      9.7010192644483375
  1381   1       37.60395096322241      14.651539404553414      9.4867110332749558
  1382   2      37.968274956217165      14.744406304728546      10.994012259194394
  1383   1      37.432504378283717      14.230066549912435      11.236894921190894
  1384   1      38.611199649737308      14.658683012259194      11.458346760070052
  1385   3      37.618238178633973      15.687362521891417      11.072591943957969
  1386   1      37.468222416812608      15.787373029772329      11.722660245183889
  1387   1      38.704066549912433      22.823826619964972      35.332283712784587
  1388   2      38.104003502626966      23.252443082311732      35.089401050788091
  1389   1      37.811115586690015      23.631054290718033      35.725182136602456
  1390   1      38.382604203152368      23.802500875656744      34.603635726795098
  1391   2      37.353924693520142      22.638092819614712      34.610779334500876
  1392   1       37.66109982486865      22.259481611208404      33.989285464098074
  1393   1      37.089611208406303      22.080891418563926      35.110831873905425
  1394   3      36.596702276707532       23.23101225919439      34.325035026269703
  1395   1      36.139511383537659      22.838113835376529      34.032147110332751
  1396   1      26.231327495621716      26.459922942206656      11.572644483362522
  1397   2      25.959870402802096      26.031306479859893      12.172707530647983
  1398   1      26.209896672504378      25.288371278458843      12.065553415061297
  1399   1      26.309907180385284      26.295619964973731      12.829919439579683
  1400   2      24.888329246935204      26.095598949211908      12.237000000000002
  1401   1       24.65973380035026      26.845677758318736      12.337010507880908
  1402   1      24.552579684763572      25.838429071803855      11.565500875656744
  1403   3      24.581154115586685      25.531253940455336      13.015653239929946
  1404   1      23.909654991243432      25.581259194395798      13.037084063047285
  1405   1      3.7789684763572677      31.767623467600696      14.722975481611208
  1406   2      3.8146865148861639      31.131842381786335      15.173022767075308
  1407   1      3.0717513134851133      30.903246935201395      15.323038528896671
  1408   1       4.150436077057793      30.560353765323988      14.751549912434324
  1409   2       4.364744308231173      31.331863397548158      16.080260945709281
  1410   1      5.1005359019264445      31.574746059544658      15.915957968476356
  1411   1      4.0218511383537647      31.917639229422068      16.494590192644488
  1412   3      4.3861751313485113      30.496061295971977      16.637462346760071
  1413   1      4.7290683012259196      30.638933450087567      17.194663747810853
  1414   1      14.865847635726793      7.7508143607705771      17.401828371278459
  1415   2      15.080155866900176      8.3580210157618211      17.844732049036779
  1416   1      15.858809106830124      8.4294570928196144      17.780439579684764
  1417   1      14.765837127845884      9.0080893169877392      17.523269702276703
  1418   2      14.758693520140101      8.2222924693520127      18.866267950963223
  1419   1      13.972896672504378      8.1437127845884412      18.901985989492118
  1420   1      15.073012259194392      7.5650805604203146      19.173443082311735
  1421   3      15.051581436077058      9.0295201401050793       19.39489492119089
  1422   1      14.851560420315236      8.9295096322241676      20.030676007005255
  1423   1      33.832126094570931      23.209581436077055      24.402563922942203
  1424   2      33.760690017513134      23.823931698774079      23.923942206654988
  1425   1      33.374935201401044      24.388276707530647      24.323984238178632
  1426   1      34.482194395796846      24.095388791593695      23.781070052539405
  1427   2      33.246350262697021      23.545330998248687      23.016704028021014
  1428   1      33.639248686514883      22.973842381786344      22.638092819614712
  1429   1      32.517702276707531      23.259586690017507      23.181007005253942
  1430   3      33.167770577933453       24.35970227670753      22.438071803852889
  1431   1      32.846308231173381      24.173968476357267      21.873726795096321
  1432   1       32.16766549912434      9.1223870402802092      8.2080052539404562
  1433   2      32.710579684763573      9.0866690017513143      8.7723502626970227
  1434   1      33.353504378283709      8.7580630472854644      8.4580315236427328
  1435   1      32.903457092819615      9.8296042031523623      8.9580840630472842
  1436   2      32.346255691768825      8.5366112084063062      9.6224395796847624
  1437   1      31.696187390542907      8.8723607705779344      9.9153274956217157
  1438   1       32.15337828371279      7.7936760070052529      9.4152749562171625
  1439   3      33.082047285464093      8.5151803852889643      10.315369527145359
  1440   1      32.839164623467603      8.1651436077057795      10.843996497373031
  1441   1      37.961131348511387       21.62370052539405      28.138670753064801
  1442   2       37.66109982486865      21.209371278458843      28.724446584938704
  1443   1      36.896733800350262      21.095073555166369      28.560143607705779
  1444   1      38.011136602451835      20.502154115586691       28.71015936952714
  1445   2      37.811115586690015      21.702280210157618      29.674546409807355
  1446   1       38.57548161120841      21.823721541155866      29.810274956217164
  1447   1       37.46107880910683      22.416640980735547      29.667402802101574
  1448   3      37.403929947460597      21.130791593695275      30.396050788091067
  1449   1      37.496796847635714      21.459397548161117      30.974683012259192
  1450   1      5.7506042031523652      19.202017513134852     0.40718563922942208
  1451   2      6.3435236427320492      19.630633975481611     0.14287215411558671
  1452   1      6.3935288966725041       19.50919264448336      40.154218914185641
  1453   1      6.1506462346760067      20.387856392294221     0.24288266199649738
  1454   2      7.2579054290718039      19.380607705779333      0.6500683012259193
  1455   1      7.1864693520140097      19.494905429071803      1.4287215411558669
  1456   1      7.4364956217162872      18.616241681260945     0.54291418563922944
  1457   3      8.0008406304728563      19.959239929947461     0.27860070052539404
  1458   1      8.5651856392294228      19.787793345008755     0.60006304728546411
  1459   1      6.2578003502626958      10.786847635726796      19.766362521891413
  1460   2      5.9934868651488618      10.079630472854641      19.566341506129596
  1461   1      5.4148546409807343      9.8938966725043773      20.073537653239931
  1462   1      5.6577373029772327      10.143922942206654      18.859124343257445
  1463   2      6.7864273204903673      9.3509824868651492      19.566341506129596
  1464   1      7.3579159369527138      9.5510035026269691      19.066288966725043
  1465   1      7.1221768826619964      9.3009772329246907      20.287845884413308
  1466   3      6.3935288966725041      8.4580315236427328      19.316315236427322
  1467   1      6.9007250437828365      8.0079842381786346        19.3234588441331
  1468   1      22.159471103327494      29.381658493870404      39.497007005253941
  1469   2      21.945162872154114      30.046014010507882      39.847043782837126
  1470   1      22.438071803852889       30.61035901926445      39.589873905429073
  1471   1      21.230802101576177      30.238891418563924      39.575586690017509
  1472   2      21.952306479859892       29.95314711033274      0.1285849387040334
  1473   1      21.466541155866896      29.374514886164622     0.36432399299475093
  1474   1      22.680954465849386      29.753126094570923      0.3857548161120864
  1475   3      21.680849387040283      30.831810858143601     0.52862697022767136
  1476   1      21.695136602451836      30.753231173380033      1.2001260945709344
  1477   1      20.002101576182135      25.831285464098073      35.117975481611204
  1478   2      20.516441330998244      26.267045534150615      34.732220665499128
  1479   1       20.72360595446585      26.867108581436078      35.210842381786343
  1480   1      21.166509632224166      25.831285464098073      34.625066549912439
  1481   2      20.116399299474605      26.617082311733796      33.796408056042033
  1482   1      19.902091068301225      26.009875656742555      33.339217162872146
  1483   1      19.459187390542908      27.052842381786338      33.917849387040285
  1484   3      20.816472854640981      27.174283712784586      33.339217162872146
  1485   1      20.545015761821361      27.388591943957969      32.760584938704028
  1486   1      28.817313485113832      27.995798598949207      39.825612959719791
  1487   2      29.474525394045536      27.767203152364271       40.18993695271454
  1488   1      29.431663747810855      26.981406304728544      40.275660245183886
  1489   1      30.081732049036773      27.910075306479861      39.704171628721546
  1490   2      29.588823117338006      28.274399299474606     0.34289316987740803
  1491   1      29.617397548161122      29.053052539404554     0.24288266199649738
  1492   1      28.967329246935197      28.117239929947456     0.82151488616462343
  1493   3      30.438912434325744      27.938649737302978     0.77865323992994739
  1494   1      30.488917688266199      28.260112084063046      1.3644290718038528
  1495   1      28.452989492119084       11.17260245183888      5.9720560420315225
  1496   2      28.110096322241681       11.87267600700525      6.0292049036777575
  1497   1      27.638618213660244      11.851245183887915      6.6649859894921191
  1498   1      28.674441330998246      12.401302977232925      6.1792206654991242
  1499   2      27.567182136602451      12.115558669001752      5.1291103327495611
  1500   1      28.045803852889673      12.115558669001752      4.5076164623467605
  1501   1      27.002837127845879      11.572644483362522      4.9933817863397545
  1502   3      27.138565674255691      13.015653239929946      5.2505516637478094
  1503   1      26.802816112084056      13.151381786339755      4.6862066549912438
  1504   1      15.130161120840629      11.272612959719789      12.387015761821365
  1505   2      15.658788091068303      11.029730297723292      11.865532399299473
  1506   1      15.908814360770577      10.322513134851137       12.10841506129597
  1507   1      15.280176882661994      10.908288966725044      11.179746059544657
  1508   2      16.458872154115586      11.736947460595447      11.758378283712785
  1509   1      16.187415061295972       12.43702101576182      11.529782837127847
  1510   1      16.823196147110334      11.851245183887915      12.458451838879158
  1511   3      17.116084063047285       11.37976707530648      11.086879159369527
  1512   1      17.608992994746057      11.829814360770575      11.036873905429072
  1513   1      2.2073747810858144      32.960605954465848      38.053998248686511
  1514   2      2.3073852889667252      33.732115586690021      38.146865148861643
  1515   1      2.2502364273204902      33.882131348511386      38.918374781085816
  1516   1      3.0503204903677754      33.903562171628728       37.93255691768826
  1517   2      1.5858809106830123      34.289316987740797       37.56108931698774
  1518   1      1.6573169877408056      34.110726795096319      36.796723292469352
  1519   1     0.85008931698774071      34.096439579684755      37.782541155866902
  1520   3       1.750183887915937      35.267991243432576       37.71824868651489
  1521   1      1.2929929947460597      35.603740805604204      37.346781085814364
  1522   1      27.038555166374778      9.6367267950963225      9.4938546409807358
  1523   2      27.431453590192639      8.9938021015761827      9.7010192644483375
  1524   1      26.967119089316984      8.3794518388791595      9.5367162872154108
  1525   1      28.060091068301222      8.9366532399299459      9.2223975481611209
  1526   2      27.717197898423812      9.0295201401050793      10.736842381786339
  1527   1      28.174388791593689      9.6581576182136608      10.879714535901924
  1528   1      27.074273204903673      9.0938126094570926      11.201176882661997
  1529   3      28.217250437828369       8.179430823117336      10.958294220665497
  1530   1       28.38155341506129      8.2151488616462345      11.608362521891419
  1531   1      18.430507880910682      9.2438283712784592       24.87404203152364
  1532   2      19.030570928196148      8.8152119089316994      25.138355516637475
  1533   1       19.20916112084063      9.0795253940455343       25.85985989492119
  1534   1      18.773401050788092      8.0722767075306479       25.21693520140105
  1535   2      19.873516637478108      8.8795043782837144       24.45971278458844
  1536   1      19.673495621716285      8.6223345008756578        23.7453520140105
  1537   1      20.109255691768826      9.6295831873905406      24.381133099824861
  1538   3      20.616451838879158      8.3151593695271444      24.838323992994741
  1539   1      21.137935201401046      8.3723082311733794      24.409707530647989
  1540   1      34.317891418563924      10.472528896672504      24.159681260945707
  1541   2      33.753546409807356      10.708267950963224      23.666772329246935
  1542   1      33.096334500875656      10.793991243432572      24.095388791593695
  1543   1      33.953567425569176      11.422628721541153      23.402458844133097
  1544   2      33.624961471103326      10.008194395796846      22.859544658493871
  1545   1      34.289316987740797      9.9224711033274957      22.452359019264446
  1546   1      33.424940455341513      9.2866900175131342      23.138145359019262
  1547   3      32.889169877408051      10.351087565674256      22.259481611208404
  1548   1      32.810590192644483      9.9010402802101556      21.766572679509633
  1549   1      10.279651488616462        30.4531996497373      29.474525394045536
  1550   2      9.5224290718038525        30.4531996497373      29.267360770577938
  1551   1      9.1581050788091076      30.988970227670755      29.717408056042032
  1552   1      9.4867110332749558      30.717513134851135      28.524425569176881
  1553   2      9.0866690017513143       29.46738178633975       29.36737127845884
  1554   1      9.4724238178633993      28.945898423817859      28.917323992994746
  1555   1      9.1438178633975493      29.217355516637479      30.117450087565672
  1556   3      8.1222819614711046      29.524530647985983      29.088770577933449
  1557   1      7.8651120840630462      28.910180385288964      29.160206654991242
  1558   1      14.472949211908929      20.266415061295969      9.4652802101576157
  1559   2      14.058619964973728      20.752180385288966      9.9153274956217157
  1560   1      14.251497373029775      21.487971978984238      9.7081628721541158
  1561   1      13.301397548161122      20.659313485113834      9.7367373029772306
  1562   2      14.244353765323993      20.559302977232925      10.965437828371279
  1563   1      14.058619964973728      19.816367775831875       11.14402802101576
  1564   1      15.015863397548161      20.652169877408056      11.129740805604202
  1565   3      13.701439579684761      21.202227670753061      11.508352014010507
  1566   1       13.83002451838879      21.073642732049034      12.151276707530648
  1567   1      5.4934343257443086      30.831810858143601      3.1360437828371275
  1568   2      5.8077530647985975      31.524740805604207      3.3146339754816112
  1569   1      5.3291313485113836       31.86763397548161      3.8432609457092819
  1570   1      6.4935394045534149      31.381868651488617      3.6861015761821365
  1571   2      5.9577688266199642      32.131947460595441      2.4359702276707531
  1572   1      6.4292469352014008      31.767623467600696      1.9216304728546409
  1573   1      5.2648388791593694      32.260532399299471      2.0716462346760069
  1574   3      6.3578108581436075       33.01061120840631      2.7217145359019264
  1575   1      6.4435341506129591      33.374935201401044      2.1645131348511382
  1576   1      35.796618213660246      26.809959719789841      4.3933187390542914
  1577   2      35.289422066549911      26.252758318739051      4.1790105078809106
  1578   1      35.468012259194396      25.602690017513133      4.5861961471103321
  1579   1      34.575061295971977      26.481353765323991      4.4147495621716288
  1580   2      35.317996497373031      26.088455341506133      3.1146129597197896
  1581   1      35.146549912434331      26.752810858143608      2.7217145359019264
  1582   1       36.04664448336252      25.867003502626968      2.8860175131348513
  1583   3      34.653640980735553      25.366950963222422      2.8860175131348513
  1584   1      34.682215411558673      25.274084063047283      2.2216619964973727
  1585   1      24.381133099824861      14.915852889667251      21.880870402802103
  1586   2       23.84536252189142      15.294464098073554      21.459397548161117
  1587   1      23.138145359019262      14.994432574430824      21.666562171628719
  1588   1       23.84536252189142      16.044542907180386      21.687992994746061
  1589   2      24.038239929947462      15.187309982486862      20.402143607705778
  1590   1      24.745457092819613      15.480197898423818      20.223553415061296
  1591   1       24.03109632224168      14.422943957968476       20.19497898423818
  1592   3      23.316735551663747      15.680218914185639      19.902091068301225
  1593   1      23.445320490367777      15.608782837127846      19.244879159369525
  1594   1      2.0216409807355515       10.48681611208406      25.138355516637475
  1595   2      2.4716882661996498      10.022481611208407      24.709739054290722
  1596   1       2.293098073555166      9.2795464098073541      24.902616462346757
  1597   1       2.264523642732049      10.115348511383537      23.959660245183883
  1598   2      3.5217985989492111      10.236789842381787      24.866898423817865
  1599   1      3.6789579684763569      10.986868651488617      24.681164623467598
  1600   1       3.714676007005254      10.143922942206654       25.63126444833625
  1601   3      4.0647127845884414      9.6081523642732041      24.302553415061297
  1602   1      4.7076374781085812      9.7510245183887925      24.409707530647989
  1603   1      4.0432819614711031      31.131842381786335      34.539343257443086
  1604   2      4.0289947460595448      30.424625218914183      34.867949211908936
  1605   1      3.3789264448336245      30.060301225919435      34.625066549912439
  1606   1      4.6433450087565671      30.017439579684758      34.575061295971977
  1607   2      4.0789999999999997      30.496061295971977       35.94663397548161
  1608   1      4.7362119089316996      30.867528896672496      36.168085814360765
  1609   1      3.4646497373029765      30.910390542907177      36.225234676006998
  1610   3      4.0575691768826614      29.560248686514878      36.325245183887908
  1611   1      4.0861436077057789      29.624541155866897      36.996744308231172
  1612   1      16.451728546409807       18.46622591943958      28.295830122591944
  1613   2      15.680218914185639      18.530518388791592      28.217250437828369
  1614   1      15.351612959719791      17.894737302977227      28.560143607705779
  1615   1      15.444479859894919      19.159155866900175      28.624436077057787
  1616   2      15.401618213660248      18.609098073555167      27.174283712784586
  1617   1      15.744511383537656      19.230591943957965      26.838534150612961
  1618   1      15.651644483362519      17.966173380035027       26.77424168126095
  1619   3      14.401513134851136       18.68053415061296      27.109991243432574
  1620   1      14.244353765323993      18.723395796847633      26.459922942206656
  1621   1      24.159681260945707      3.0146024518388788       13.07994570928196
  1622   2      23.695346760070052      2.5288371278458843      12.679903677758317
  1623   1      24.066814360770579      1.8359071803852889      12.637042031523642
  1624   1       23.04527845884413      2.4145394045534152        13.1013765323993
  1625   2      23.473894921190894      2.9360227670753059      11.701229422066548
  1626   1      23.116714535901927      3.6360963222416811      11.765521891418562
  1627   1      24.138250437828372      3.0503204903677754      11.286900175131347
  1628   3      22.880975481611205      2.2788108581436073      11.215464098073555
  1629   1      22.752390542907179      2.5431243432574426      10.608257443082312
  1630   1      10.994012259194394      11.129740805604202      34.103583187390548
  1631   2      10.586826619964972      11.772665499124344      34.275029772329248
  1632   1      10.951150612959719      12.379872154115589      33.917849387040285
  1633   1       9.879609457092819       11.70837302977233      33.932136602451841
  1634   2      10.501103327495619      11.915537653239928      35.339427320490358
  1635   1      10.136779334500877      11.301187390542907      35.675176882661994
  1636   1      11.215464098073555      11.979830122591942      35.675176882661994
  1637   3      9.9724763572679507      12.758483362521892      35.503730297723287
  1638   1       9.929614711033274      12.837063047285463      36.168085814360765
  1639   1      30.603215411558661       37.60395096322241      7.9365481611208404
  1640   2      31.374725043782835      37.596807355516624      8.0437022767075295
  1641   1      31.589033274956218      36.846728546409814      8.1579999999999995
  1642   1      31.717618213660248      37.832546409807357       7.372203152364273
  1643   2      31.660469352014015      38.225444833625218      8.8723607705779344
  1644   1      31.424730297723293      38.968380035026271      8.7509194395796843
  1645   1      31.303288966725038      37.982562171628722      9.5438598949211908
  1646   3      32.660574430823118      38.182583187390541      8.9795148861646226
  1647   1      32.817733800350268       38.57548161120841      9.5009982486865159
  1648   1      35.310852889667245      35.996639229422058      11.636936952714535
  1649   2      35.818049036777587      35.968064798598952       11.04401751313485
  1650   1       36.17522942206655      35.267991243432576      11.065448336252189
  1651   1      35.396576182136599      35.989495621716287      10.372518388791592
  1652   2      36.518122591943964      36.789579684763567      11.101166374781087
  1653   1       36.14665499124343      37.482509632224165      11.086879159369527
  1654   1       36.93245183887916      36.761005253940453      11.779809106830124
  1655   3      37.153903677758315       36.71814360770577      10.315369527145359
  1656   1      37.582520140105075      37.225339754816112      10.365374781085816
  1657   1      25.588402802101577      38.003992994746064       8.736632224168126
  1658   2      25.031201401050783      37.732535901926447      9.2009667250437843
  1659   1      24.352558669001748      38.082572679509632      8.9866584938704026
  1660   1      24.945478108581433       36.96102626970228      9.0509509632224159
  1661   2      25.266940455341501      37.911126094570925      10.236789842381787
  1662   1      25.945583187390543       37.56108931698774      10.436810858143607
  1663   1      25.352663747810858      38.689779334500869      10.379661996497374
  1664   3      24.509718038528899      37.546802101576183      10.801134851138354
  1665   1      24.674021015761816      37.668243432574421      11.444059544658494
  1666   1      2.7360017513134847      15.251602451838876       20.28070227670753
  1667   2      3.5075113835376528      15.151591943957969      20.302133099824868
  1668   1      3.6646707530647986      14.465805604203153      19.937809106830123
  1669   1      3.8361173380035023      15.723080560420316      19.873516637478108
  1670   2       3.871835376532399      15.165879159369528      21.323669001751313
  1671   1      3.7003887915936948      15.851665499124342      21.673705779334497
  1672   1      3.5360858143607703      14.587246935201399      21.745141856392294
  1673   3      4.8719404553415062      15.030150612959718      21.295094570928192
  1674   1      5.0862486865148853      15.037294220665499      21.938019264448336
  1675   1      38.782646234676015      4.1290052539404547      9.0866690017513143
  1676   2      38.761215411558666      3.3789264448336245      8.8723607705779344
  1677   1       38.74692819614711       2.950309982486865      9.5367162872154108
  1678   1      38.068285464098068      3.2574851138353766      8.5080367775831878
  1679   2      39.597017513134851      3.1289001751313479      8.2365796847635728
  1680   1      39.597017513134851      3.5789474605954466      7.5865113835376539
  1681   1      40.282803852889671      3.2646287215411562       8.615190893169876
  1682   3      39.525581436077061       2.157369527145359      7.9936970227670754
  1683   1      40.054208406304731      2.0144973730297724      7.6007985989492122
  1684   1      3.6503835376532399      27.945793345008756      39.911336252189137
  1685   2      4.1932977232924689       28.07437828371279      39.361278458844133
  1686   1      4.6576322241681263      28.660154115586689      39.618448336252193
  1687   1      4.6433450087565671      27.431453590192639      39.304129597197893
  1688   2      3.7289632224168128      28.324404553415057      38.411178633975481
  1689   1      3.2646287215411562      27.738628721541154      38.168295971978978
  1690   1      3.2789159369527145      28.974472854640979      38.482614711033264
  1691   3      4.4647548161120838      28.488707530647986      37.739679509632218
  1692   1      4.1647232924693522      28.638723292469354      37.161047285464093
  1693   1      16.251707530647987      4.1290052539404547      15.415905429071801
  1694   2      16.758903677758319      3.5860910683012257      15.187309982486862
  1695   1      16.630318739054289      3.4503625218914182      14.422943957968476
  1696   1       17.48040805604203      3.9004098073555173      15.237315236427317
  1697   2      16.680323992994747      2.6931401050788093      15.787373029772329
  1698   1      16.801765323992996      2.8502994746059547      16.544595446584935
  1699   1      15.944532399299472      2.3859649737302977      15.730224168126092
  1700   3      17.351823117338004      2.0216409807355515      15.444479859894919
  1701   1       17.28038704028021      1.4715831873905429      15.823091068301226
  1702   1      3.9004098073555173       23.88822416812609      5.7005989492119093
  1703   2      3.3146339754816112       24.03109632224168      6.1935078809106825
  1704   1      2.8360122591943959      23.402458844133097      6.1863642732049033
  1705   1      3.6146654991243432      24.088245183887913      6.9150122591943948
  1706   2      2.7860070052539401      24.938334500875655      5.9149071803852875
  1707   1      3.2789159369527145      25.552684763572678      5.9149071803852875
  1708   1      2.4931190893169877       24.87404203152364      5.1791155866900169
  1709   3      2.0359281961471103      25.081206654991242      6.5649754816112083
  1710   1      1.7216094570928198       25.64555166374781      6.3792416812609458
  1711   1      19.444900175131348      32.510558669001753      17.001786339754815
  1712   2      18.723395796847633      32.703436077057795      16.773190893169875
  1713   1      18.773401050788092      33.374935201401044      16.366005253940454
  1714   1       18.48051313485114      32.146234676007005      16.265994746059548
  1715   2      18.051896672504377       32.78201576182137      17.616136602451842
  1716   1       18.02332224168126      32.103373029772328      18.016178633975478
  1717   1      18.309066549912437      33.339217162872146       18.12333274956217
  1718   3      17.137514886164624      33.032042031523638      17.273243432574432
  1719   1      16.737472854640977      33.082047285464093       17.80901401050788
  1720   1      34.932241681260948      19.787793345008755      17.944742556917689
  1721   2      34.232168126094571      19.630633975481611      17.637567425569177
  1722   1      33.739259194395792       19.50919264448336      18.244774080560418
  1723   1      33.974998248686518       20.28070227670753       17.26609982486865
  1724   2      34.275029772329248       18.78054465849387      16.973211908931699
  1725   1      34.775082311733804      18.916273204903678      16.380292469352014
  1726   1      34.539343257443086       18.13761996497373      17.358966725043778
  1727   3      33.346360770577931      18.609098073555167      16.616031523642732
  1728   1      33.389222416812608      18.080471103327497      16.208845884413311
  1729   1      20.830760070052541      36.025213660245186      37.611094570928195
  1730   2      21.266520140105076      36.668138353765322      37.711105078809105
  1731   1      20.773611208406301      37.282488616462352      37.768253940455338
  1732   1      21.630844133099821      36.603845884413303      38.404035026269703
  1733   2      21.966593695271452      36.789579684763567      36.896733800350262
  1734   1      22.445215411558664      36.160942206654994      36.846728546409814
  1735   1      21.580838879159369      36.846728546409814      36.203803852889664
  1736   3      22.502364273204904      37.625381786339759      37.061036777583183
  1737   1      22.930980735551664       37.68967425569177      36.546697022767063
  1738   1      9.0223765323992993      28.388697022767072      36.725287215411555
  1739   2      8.8437863397548142      27.902931698774079      36.139511383537659
  1740   1      9.2581155866900176      27.238576182136601      36.253809106830126
  1741   1      8.0865639229422062      27.717197898423812      36.218091068301227
  1742   2      9.0509509632224159      28.360122591943956      35.182267950963222
  1743   1      8.6366217162872161      29.024478108581434      35.089401050788091
  1744   1      9.8224605954465858      28.545856392294219      35.125119089316989
  1745   3      8.8080683012259211      27.695767075306474      34.460763572679504
  1746   1      8.9437968476357259      27.988654991243429      33.874987740805601
  1747   1      4.7076374781085812      26.395630472854638      5.4862907180385285
  1748   2      5.0648178633975469      26.145604203152367      4.8433660245183887
  1749   1      5.7506042031523652       26.53135901926445      4.7862171628721546
  1750   1      5.2505516637478094      25.381238178633975      4.9505201401050778
  1751   2      4.4504676007005255      26.274189141856393      3.9647022767075311
  1752   1       3.764681260945709      25.888434325744306      4.0432819614711031
  1753   1      4.2718774080560413      27.045698774080559       3.871835376532399
  1754   3      4.9576637478108578      25.938439579684761       3.164618213660245
  1755   1      4.5576217162872146      26.038450087565675      2.6288476357267951
  1756   1      17.301817863397549     0.97153064798598954      26.552789842381785
  1757   2       17.48040805604203      1.4358651488616465      27.145709281961469
  1758   1      18.116189141856392       1.857338003502627      26.938544658493868
  1759   1      16.887488616462349      1.9502049036777587      27.238576182136601
  1760   2      17.651854640980737     0.87152014010507872      28.052947460595444
  1761   1      17.008929947460594       0.450047285464098      28.238681260945711
  1762   1      18.244774080560418     0.35718038528896673      27.945793345008756
  1763   3      17.880450087565674       1.514444833625219      28.788739054290719
  1764   1      17.987604203152365      1.1429772329246937      29.345940455341506
  1765   1      32.824877408056039      13.001366024518388      34.532199649737301
  1766   2      32.231957968476358      13.179956217162871      34.060721541155857
  1767   1      31.617607705779339      12.729908931698775      34.267886164623469
  1768   1      32.024793345008746      13.930035026269701      34.210737302977236
  1769   2      32.503415061295975      13.051371278458843      33.024898423817866
  1770   1      33.117765323992998       13.50141856392294      32.839164623467603
  1771   1      32.710579684763573      12.294148861646235       32.88202626970228
  1772   3      31.703330998248685      13.287110332749563       32.45340980735552
  1773   1      31.889064798598945       13.20138704028021      31.817628721541155
  1774   1      28.217250437828369      24.281122591943955      5.1934028021015752
  1775   2      28.567287215411561      24.916903677758317      4.9076584938704029
  1776   1      29.338796847635724      24.759744308231177       4.857653239929947
  1777   1      28.302973730297726      25.024057793345008      4.1718669001751305
  1778   2      28.360122591943956      25.781280210157622      5.5291523642732043
  1779   1      27.588612959719793      25.909865148861645      5.5791576182136611
  1780   1      28.624436077057787      25.659838879159366       6.272087565674255
  1781   3      28.831600700525392      26.574220665499126      5.1291103327495611
  1782   1      28.703015761821366      27.102847635726789      5.5220087565674252
  1783   1      29.403089316987735      23.416746059544661      38.939805604203151
  1784   2      29.117345008756566      23.852506129597199      39.511294220665498
  1785   1      29.674546409807355      23.909654991243432      40.068495621716281
  1786   1      29.003047285464092      24.581154115586685       39.23269352014011
  1787   2      28.195819614711031      23.438176882661995      39.897049036777588
  1788   1      27.652905429071804      23.381028021015766      39.325560420315234
  1789   1      28.317260945709279      22.702385288966727      40.175649737302976
  1790   3      27.867213660245181       24.03109632224168      40.639984238178634
  1791   1      27.295725043782838      23.752495621716289    0.078579684763571855
  1792   1      21.409392294220666      2.2859544658493873      21.116504378283711
  1793   2      21.952306479859892      2.6288476357267951      21.559408056042027
  1794   1      22.595231173380036      2.7288581436077055      21.109360770577933
  1795   1      21.687992994746061      3.3432084063047292      21.752285464098069
  1796   2      22.159471103327494      2.0359281961471103      22.438071803852889
  1797   1      21.509402802101576      1.9287740805604205      22.866688266199645
  1798   1      22.423784588441329      1.3144238178633976      22.230907180385291
  1799   3      22.866688266199645      2.5074063047285464      22.973842381786344
  1800   1      22.995273204903672      2.1216514886164624      23.516756567425571
  1801   1      9.4438493870402791      9.9724763572679507      26.917113835376533
  1802   2      9.4438493870402791      9.3581260945709293      27.395735551663744
  1803   1      8.9295096322241676      8.8294991243432577      27.095704028021011
  1804   1      10.158210157618212      9.0223765323992993      27.352873905429071
  1805   2      9.1938231173380025      9.6367267950963225      28.402984238178632
  1806   1      9.7081628721541158      10.165353765323994      28.681584938704024
  1807   1      8.4723187390542911      9.9796199649737307      28.424415061295971
  1808   3      9.1938231173380025      8.8080683012259211      28.974472854640979
  1809   1      9.0366637478108576      9.0009457092819609       29.59596672504378
  1810   1      30.503204903677752      31.346150612959718      5.1433975481611194
  1811   2      30.638933450087567      31.531884413309978      4.3933187390542914
  1812   1      31.060406304728545        30.9389649737303      4.0789999999999997
  1813   1      29.946003502626972       31.53902802101576      4.0218511383537647
  1814   2      31.146129597197895      32.481984238178633       4.314739054290718
  1815   1      30.717513134851135       33.05347285464098      4.6433450087565671
  1816   1      31.839059544658493      32.460553415061291      4.7076374781085812
  1817   3      31.303288966725038      32.674861646234675      3.3432084063047292
  1818   1      31.624751313485106      33.267781085814363      3.3074903677758321
  1819   1      36.039500875656742      22.866688266199645      5.5291523642732043
  1820   2      35.660889667250437      22.852401050788089      6.2149387040280208
  1821   1      35.696607705779336      23.581049036777586      6.5149702276707533
  1822   1      34.903667250437827      22.709528896672502      6.0577793345008759
  1823   2      36.082362521891426      22.116609457092817      6.8792942206654972
  1824   1       36.04664448336252       21.39510507880911      6.5506882661996499
  1825   1      36.846728546409814      22.273768826619964      7.0150227670753056
  1826   3      35.568022767075306      22.138040280210159      7.7436707530647979
  1827   1      35.839479859894915      21.673705779334497      8.1437127845884412
  1828   1      11.715516637478107      6.4292469352014008      24.838323992994741
  1829   2      11.565500875656744      6.2292259194395792      24.095388791593695
  1830   1      10.851140105078809      6.5149702276707533      23.916798598949207
  1831   1      12.079840630472853      6.6149807355516641      23.638197898423819
  1832   2      11.629793345008753      5.1648283712784586      23.952516637478105
  1833   1       12.34415411558669      4.9005148861646237      24.152537653239925
  1834   1      11.108309982486862      4.7862171628721546      24.423994746059542
  1835   3      11.422628721541153      4.9576637478108578      22.988129597197897
  1836   1      11.465490367775832      4.2861646234675996      22.923837127845886
  1837   1      11.658367775831874      4.4504676007005255       30.25317863397548
  1838   2      11.858388791593692      5.0505306479859895      29.788844133099822
  1839   1      11.415485113835377      5.6720245183887918      29.996008756567424
  1840   1      12.608467600700525      5.2362644483362519       29.95314711033274
  1841   2      11.736947460595447      4.7933607705779337      28.745877408056039
  1842   1      12.172707530647983      4.1647232924693522      28.560143607705779
  1843   1      10.979725043782835      4.6004833625218922      28.595861646234678
  1844   3      12.001260945709282      5.5934448336252194      28.188676007005252
  1845   1      11.915537653239928      5.4219982486865153      27.545751313485116
  1846   1      11.286900175131347      2.4145394045534152      23.531043782837124
  1847   2       11.58693169877408      2.0930770577933449      24.173968476357267
  1848   1       12.03697898423818      2.6359912434325743      24.524005253940455
  1849   1      10.979725043782835      1.9502049036777587      24.666877408056042
  1850   2       12.13698949211909      1.1929824868651489      23.952516637478105
  1851   1      11.672654991243432     0.66435551663747794      23.595336252189139
  1852   1      12.737052539404552      1.3501418563922942      23.452464098073555
  1853   3      12.501313485113833     0.82151488616462343      24.809749562171625
  1854   1      12.844206654991241      0.2643134851138354      24.652590192644482
  1855   1      21.573695271453591      30.888959719789838      11.179746059544657
  1856   2      22.173758318739054      30.531779334500879      10.836852889667249
  1857   1      22.595231173380036      31.081837127845883      10.458241681260946
  1858   1      22.638092819614712      30.246035026269706      11.408341506129597
  1859   2      21.830865148861644      29.745982486865149      10.172497373029771
  1860   1      21.409392294220666      29.210211908931697      10.572539404553416
  1861   1      21.366530647985986      30.046014010507882      9.6081523642732041
  1862   3      22.638092819614712      29.317366024518389      9.7581681260945707
  1863   1      22.416640980735547      28.831600700525392      9.3438388791593674
  1864   1       38.08971628721541      3.4003572679509628      31.789054290718035
  1865   2       38.77550262697023       3.714676007005254      31.589033274956218
  1866   1      39.161257443082313      3.1860490367775833      31.153273204903677
  1867   1      38.618343257443073      4.3290262697022763      31.117555166374782
  1868   2       39.33270402802102      4.0218511383537647      32.460553415061291
  1869   1      38.925518388791588      4.5433345008756572      32.889169877408051
  1870   1      39.475576182136599      3.3932136602451837      32.932031523642735
  1871   3      40.204224168126096      4.4147495621716288       32.15337828371279
  1872   1       40.54711733800351      4.5933397548161121      32.710579684763573
  1873   1      21.773716287215411       7.815106830122593      7.0007355516637482
  1874   2      21.552264448336253      7.2150437828371281      6.5649754816112083
  1875   1      21.980880910683013      6.5864063047285457      6.7792837127845882
  1876   1      20.802185639229418      7.0507408056042022      6.7435656742556906
  1877   2      21.659418563922937      7.4364956217162872      5.5077215411558669
  1878   1      21.230802101576177      8.0722767075306479      5.3148441330998235
  1879   1      22.416640980735547      7.6079422066549904      5.3362749562171627
  1880   3      21.359387040280211      6.6364115586690025      4.9862381786339753
  1881   1      21.437966725043783      6.7864273204903673      4.3361698774080564
  1882   1      1.5858809106830123      11.444059544658494      1.2858493870402798
  1883   2     0.84294570928196133      11.651224168126092        1.39300350262697
  1884   1     0.70007355516637482      11.629793345008753      2.1716567425569178
  1885   1     0.76436602451838875      12.401302977232925      1.1715516637478109
  1886   2     0.17144658493870402      11.001155866900175     0.84294570928196133
  1887   1     0.33574956217162871      11.029730297723292    0.071436077057793354
  1888   1      0.2643134851138354      10.251077057793346      1.0715411558668999
  1889   3      40.018490367775833      11.301187390542907      1.0143922942206653
  1890   1      39.618448336252186      10.894001751313484     0.66435551663747794
  1891   1      32.674861646234675      22.123753064798596      33.589243432574428
  1892   2      33.124908931698769      22.573800350262694      33.132052539404548
  1893   1      33.853556917688266      22.559513134851137       33.43922767075307
  1894   1      33.167770577933453      22.230907180385291      32.424835376532393
  1895   2      32.732010507880908      23.581049036777586      33.067760070052536
  1896   1      32.003362521891425      23.573905429071804      32.767728546409806
  1897   1      32.689148861646231      23.909654991243432      33.789264448336255
  1898   3      33.346360770577931       24.11681961471103      32.474840630472855
  1899   1      33.096334500875656      24.738313485113839      32.446266199649742
  1900   1      4.4290367775831871      21.123647985989493       2.264523642732049
  1901   2      5.0362434325744312      20.987919439579688      2.7288581436077055
  1902   1      4.7933607705779337      20.509297723292466      3.3074903677758321
  1903   1      5.5720140105078801      20.587877408056041      2.3145288966725044
  1904   2      5.4434290718038527      21.916588441330994      3.1146129597197896
  1905   1      5.6720245183887918      22.380922942206649      2.5288371278458843
  1906   1      4.8933712784588446      22.309486865148866      3.5289422066549911
  1907   3      6.2220823117338009      21.695136602451836       3.714676007005254
  1908   1      6.4578213660245183      22.273768826619964      3.9504150612959719
  1909   1     0.11429772329246936      2.6002732049036772      22.288056042031521
  1910   2     0.32860595446584939      3.1289001751313479      21.759429071803847
  1911   1      1.1001155866900176      3.0146024518388788      21.616556917688264
  1912   1      40.732851138353766      2.9717408056042034      21.095073555166369
  1913   2     0.12858493870402801      4.1361488616462339      22.109465849387043
  1914   1      40.147075306479863      4.2290157618213664      22.259481611208404
  1915   1     0.51433975481611205      4.2790210157618214      22.788108581436077
  1916   3     0.42861646234675999      4.7790735551663754      21.402248686514884
  1917   1     0.30003152364273206      5.4005674255691769      21.630844133099821
  1918   1      4.4147495621716288      4.1647232924693522      29.024478108581434
  1919   2      4.7076374781085812      3.9075534150612965      28.352978984238174
  1920   1      5.4934343257443086      3.9789894921190889      28.388697022767072
  1921   1      4.5504781085814363      3.1360437828371275      28.302973730297726
  1922   2      4.2933082311733797      4.4504676007005255      27.517176882661989
  1923   1      3.5075113835376528      4.3790315236427322      27.495746059544661
  1924   1      4.4504676007005255      5.2291208406304728      27.581469352014011
  1925   3      4.6933502626970229      4.0861436077057789      26.667087565674255
  1926   1      4.4290367775831871      4.4361803852889672       26.15989141856392
  1927   1      17.287530647985989      25.602690017513133      34.825087565674252
  1928   2      17.801870402802102      25.009770577933448      34.839374781085802
  1929   1      18.073327495621715      24.916903677758317      34.103583187390548
  1930   1      18.409077057793343      25.238366024518385      35.282278458844132
  1931   2      17.344679509632225      24.109676007005255      35.225129597197899
  1932   1      17.066078809106827      24.231117338003504      35.953777583187396
  1933   1      16.723185639229424      23.902511383537654      34.775082311733804
  1934   3       18.03760945709282      23.381028021015766      35.217985989492114
  1935   1       17.73757793345009      22.823826619964972      35.460868651488617
  1936   1      4.9290893169877394       23.27387390542907      20.394999999999996
  1937   2      5.6934553415061302      23.116714535901927      20.423574430823116
  1938   1      6.0292049036777575      23.473894921190894      19.809224168126097
  1939   1      5.9791996497373017      23.466751313485112      21.073642732049034
  1940   2      5.8720455341506117      22.052316987740802       20.43786164623468
  1941   1      5.5220087565674252      21.716567425569178      21.059355516637478
  1942   1      5.5791576182136611      21.716567425569178      19.787793345008755
  1943   3      6.8721506129597181      21.909444833625219      20.480723292469349
  1944   1      6.9721611208406298      21.237945709281959      20.480723292469349
  1945   1      22.552369527145355      11.229751313485114      21.180796847635726
  1946   2      22.345204903677761      10.643975481611209      20.709318739054289
  1947   1      22.802395796847637      10.029625218914186      20.887908931698774
  1948   1      21.602269702276708      10.443954465849387      20.895052539404553
  1949   2      22.423784588441329       10.93686339754816      19.673495621716285
  1950   1      21.966593695271452      11.558357267950964      19.523479859894923
  1951   1       23.17386339754816       11.14402802101576      19.502049036777585
  1952   3      22.152327495621712      10.151066549912434      19.102007005253938
  1953   1      22.209476357267953      10.343943957968477      18.459082311733802
  1954   1      35.646602451838881      6.2935183887915933        30.0388704028021
  1955   2      35.753756567425569      6.9221558669001739       29.59596672504378
  1956   1      35.225129597197899      7.4650700525394029      29.824562171628717
  1957   1      36.468117338003509      7.2150437828371281      29.760269702276705
  1958   2      35.660889667250437      6.6864168126094583      28.545856392294219
  1959   1      36.189516637478107      6.1363590192644475      28.338691768826621
  1960   1      34.939385288966726       6.386385288966725      28.388697022767072
  1961   3      35.803761821366017       7.529362521891418      28.010085814360771
  1962   1      35.739469352014005      7.3650595446584921      27.367161120840628
  1963   1      24.095388791593695      28.660154115586689      35.925203152364276
  1964   2      23.895367775831872      27.902931698774079      35.996639229422058
  1965   1      23.916798598949207      27.724341506129591      36.768148861646232
  1966   1      23.145288966725044      27.831495621716286      35.768043782837125
  1967   2      24.552579684763572      27.274294220665496      35.418007005253941
  1968   1      24.524005253940455      27.474315236427319      34.653640980735553
  1969   1        25.3026584938704      27.360017513134846      35.653746059544659
  1970   3       24.25969176882662      26.317050788091066      35.539448336252192
  1971   1      24.681164623467598      25.938439579684761      35.175124343257444
  1972   1      0.5643450087565699      9.8081733800350275      16.065973730297721
  1973   2     0.25002626970228292      9.1938231173380025      16.430297723292469
  1974   1     0.37146760070052337      8.5580420315236427      15.973106830122594
  1975   1     0.66435551663747483      9.0795253940455343      17.094653239929947
  1976   2      39.997059544658498      9.3509824868651492      16.644605954465849
  1977   1      39.889905429071803       9.993907180385289      17.087509632224165
  1978   1      39.589873905429073      9.4724238178633993      15.965963222416811
  1979   3      39.639879159369521      8.5366112084063062      17.116084063047285
  1980   1      38.989810858143606      8.6509089316987744      17.230381786339752
  1981   1       13.95146584938704      36.032357267950957      25.602690017513133
  1982   2      14.387225919439576      35.553735551663749      25.159786339754817
  1983   1      14.058619964973728      35.546591943957964      24.438281961471105
  1984   1      15.094443082311731      35.889485113835377      25.081206654991242
  1985   2      14.451518388791595      34.567917688266199      25.595546409807351
  1986   1      14.772980735551664      34.603635726795098      26.317050788091066
  1987   1      13.730014010507878      34.246455341506127      25.666982486865145
  1988   3      15.015863397548161      33.996429071803853      24.988339754816113
  1989   1      15.044437828371276      33.389222416812608      25.266940455341501
  1990   1      2.0430718038528894      36.811010507880908       13.50141856392294
  1991   2      1.9644921190893168      36.189516637478107      13.037084063047285
  1992   1      1.8073327495621716      36.453830122591945      12.308436077057792
  1993   1      2.6717092819614709      35.832336252189137      13.001366024518388
  1994   2      1.2001260945709282      35.518017513134858       13.40855166374781
  1995   1      1.3715726795096321      35.275134851138354      14.137199649737303
  1996   1     0.50005253940455352      35.896628721541155      13.437126094570926
  1997   3      1.1358336252189143      34.739364273204906       12.77277057793345
  1998   1      0.6500683012259193      34.332178633975481      13.015653239929946
  1999   1      16.323143607705781      26.352768826619961      26.581364273204901
  2000   2      16.437441330998251      27.067129597197894      26.895683012259195
  2001   1      16.708898423817864      27.531464098073553      26.317050788091066
  2002   1      15.730224168126092      27.345730297723293      27.102847635726789
  2003   2      17.108940455341507      27.017124343257443      27.738628721541154
  2004   1      16.830339754816112      26.538502626970228      28.295830122591944
  2005   1      17.816157618213662      26.724236427320491      27.510033274956218
  2006   3      17.230381786339752      27.952936952714531      28.095809106830121
  2007   1      17.651854640980737      27.910075306479861      28.617292469352012
  2008   1       12.86563747810858      30.710369527145357        29.1387758318739
  2009   2      13.008509632224166      31.296145359019267      29.631684763572675
  2010   1      13.372833625218917      31.860490367775828      29.224499124343261
  2011   1      12.308436077057792      31.589033274956218      29.853136602451844
  2012   2      13.587141856392293      30.960395796847635      30.481774080560417
  2013   1      13.208530647985986      30.388907180385285      30.867528896672496
  2014   1       14.28007180385289      30.660364273204905      30.238891418563924
  2015   3      13.744301225919436      31.753336252189143      31.081837127845883
  2016   1      14.115768826619965      31.524740805604207      31.603320490367775
  2017   1      10.001050788091067      26.259901926444833      13.651434325744306
  2018   2      10.008194395796846       25.74556217162872      14.244353765323993
  2019   1      9.9224711033274957      26.152747810858141      14.915852889667251
  2020   1      9.3652697022767075      25.288371278458843      14.172917688266198
  2021   2      10.908288966725044      25.152642732049038      14.237210157618211
  2022   1      10.979725043782835      24.759744308231177      13.558567425569176
  2023   1      11.551213660245185      25.624120840630475      14.301502626970223
  2024   3      10.872570928196147      24.516861646234673      15.015863397548161
  2025   1      11.444059544658494      24.159681260945707      14.994432574430824
  2026   1      29.788844133099822       1.514444833625219      22.288056042031521
  2027   2      30.153168126094567     0.97867425569176891      21.859439579684761
  2028   1      30.917534150612958      1.1715516637478109      21.838008756567426
  2029   1      30.103162872154115     0.29288791593695274      22.245194395796844
  2030   2      29.724551663747807       0.900094570928196      20.866478108581429
  2031   1      28.960185639229426     0.71436077057793346      20.909339754816109
  2032   1      29.781700525394044      1.6001681260945708      20.495010507880913
  2033   3      30.238891418563924     0.20002101576182135      20.359281961471105
  2034   1      29.960290718038525     0.17144658493870402      19.744931698774078
  2035   1      32.389117338003494      14.480092819614713       5.736316987740806
  2036   2      31.667612959719786      14.444374781085815      6.0363485113835376
  2037   1      31.360437828371278      13.751444833625218      5.8148966725043767
  2038   1      31.731905429071801      14.422943957968476       6.815001751313484
  2039   2      31.074693520140102      15.287320490367778      5.7077425569176885
  2040   1      31.403299474605952      15.965963222416811      5.9220507880910667
  2041   1      31.017544658493868      15.294464098073554      4.9148021015761811
  2042   3      30.153168126094567      15.194453590192643      6.1077845884413318
  2043   1        29.7959877408056      15.723080560420316      5.8934763572679509
  2044   1      11.829814360770575      13.515705779334498      26.195609457092818
  2045   2      12.394159369527145      13.365690017513135      26.702805604203153
  2046   1      12.829919439579683       12.77277057793345      26.409917688266194
  2047   1       12.86563747810858      13.994327495621715       26.73138003502627
  2048   2        11.9941173380035      13.122807355516638      27.681479859894921
  2049   1      11.558357267950964      13.722870402802101      27.952936952714531
  2050   1      11.515495621716289      12.487026269702275      27.631474605954462
  2051   3      12.765626970227668      12.929929947460595      28.295830122591944
  2052   1      12.494169877408057      12.779914185639228      28.895893169877411
  2053   1      13.158525394045533      1.0286795096322241      2.6859964973730297
  2054   2      12.787057793345008     0.60720665499124338      2.1359387040280207
  2055   1      12.201281961471102     0.22145183887915934      2.4859754816112081
  2056   1      12.458451838879158      1.1144028021015762      1.6287425569176883
  2057   2      13.472844133099823      40.732851138353766      1.6287425569176883
  2058   1      14.058619964973728     0.35003677758318741      1.2929929947460597
  2059   1      13.808593695271455      40.232798598949216      2.1502259194395794
  2060   3      12.958504378283713      40.218511383537653     0.93581260945709288
  2061   1      13.401408056042028      39.804182136602456     0.63578108581436066
  2062   1      38.125434325744308      14.344364273204903      26.481353765323991
  2063   2      38.854082311733798      14.630108581436078      26.538502626970228
  2064   1      39.018385288966719      14.987288966725039      25.852716287215415
  2065   1      38.839795096322248      15.187309982486862      27.095704028021011
  2066   2       39.56129947460596      13.851455341506128       26.77424168126095
  2067   1      39.375565674255682       13.50141856392294      27.452884413309981
  2068   1      39.554155866900174      13.287110332749563      26.209896672504378
  2069   3      40.475681260945713      14.265784588441333      26.831390542907172
  2070   1      0.1214413309982519      13.772875656742558      26.974262697022763
  2071   1      40.125644483362521      5.9077635726795084      9.3795569176882658
  2072   2      39.911336252189137      5.1719719789842387      9.5295726795096325
  2073   1      39.296985989492121      5.2005464098073544      10.029625218914186
  2074   1      39.647022767075306       4.857653239929947      8.8580735551663743
  2075   2      40.732851138353766      4.6004833625218922       9.936758318739054
  2076   1     0.55005779334501592      4.5861961471103321      9.4295621716287226
  2077   1     0.20716462346760287      4.9290893169877394      10.608257443082312
  2078   3      40.404245183887916      3.6646707530647986      10.115348511383537
  2079   1     0.13572854640980586      3.3217775831873908      10.372518388791592
  2080   1      16.323143607705781      6.4149597197898416      31.274714535901925
  2081   2      16.337430823117337      7.1221768826619964      31.603320490367775
  2082   1      16.858914185639229      7.1007460595446581      32.189096322241681
  2083   1       16.60888791593695      7.6293730297723279      31.067549912434327
  2084   2      15.351612959719791      7.4079211908931688      31.946213660245188
  2085   1      14.837273204903678      7.4150647985989488        31.3532942206655
  2086   1      15.080155866900176      6.8935814360770573      32.481984238178633
  2087   3      15.415905429071801      8.3223029772329244      32.360542907180388
  2088   1      14.801555166374779      8.4866059544658494      32.574851138353765
  2089   1      35.732325744308227      19.894947460595446      9.6438704028021025
  2090   2      35.010821366024508      19.887803852889665      9.3438388791593674
  2091   1        34.8750928196147      20.602164623467601      9.0438073555166376
  2092   1      35.010821366024508      19.380607705779333       8.736632224168126
  2093   2      34.289316987740797      19.609203152364277      10.093917688266201
  2094   1      34.446476357267947       18.89484238178634       10.38680560420315
  2095   1      34.303604203152361      20.123542907180386      10.701124343257442
  2096   3      33.374935201401044      19.609203152364277      9.6653012259194391
  2097   1      32.932031523642735       19.43775656742557      10.143922942206654
  2098   1      31.038975481611203      15.201597197898424      23.859649737302973
  2099   2       31.02468826619965      14.944427320490369      24.595441330998248
  2100   1      31.703330998248685      14.558672504378283      24.724026269702275
  2101   1       31.02468826619965      15.573064798598947      25.066919439579678
  2102   2      30.160311733800352      14.315789842381786      24.766887915936955
  2103   1      29.495956217162863      14.708688266199651      24.616872154115583
  2104   1      30.174598949211912      13.687152364273205       24.27397898423818
  2105   3      30.188886164623462      14.001471103327496      25.716987740805603
  2106   1      29.645971978984239      13.608572679509633      25.809854640980738
  2107   1      38.132577933450087      33.610674255691769      14.501523642732046
  2108   2      37.896838879159361      33.532094570928194      15.237315236427317
  2109   1      38.468327495621715      33.146339754816111      15.630213660245186
  2110   1      37.846833625218913      34.253598949211913      15.551633975481609
  2111   2       36.94673905429071       33.01061120840631      15.287320490367778
  2112   1      36.396681260945705      33.396366024518386      14.887278458844133
  2113   1      37.011031523642735      32.281963222416813      14.965858143607706
  2114   3      36.689569176882657      32.924887915936949      16.258851138353766
  2115   1      36.103793345008754      32.596281961471099      16.273138353765326
  2116   1      7.9508353765323987      24.566866900175132      13.508562171628721
  2117   2      7.9579789842381778      24.402563922942203      12.744196147110333
  2118   1      7.5436497373029781      23.738208406304725      12.644185639229422
  2119   1      7.5579369527145355       24.97405253940455      12.372728546409807
  2120   2      8.9652276707530643       24.31684063047285      12.379872154115589
  2121   1      9.3652697022767075      24.981196147110332      12.494169877408057
  2122   1      9.3509824868651492      23.738208406304725      12.765626970227668
  2123   3      8.9223660245183893      24.095388791593695      11.394054290718039
  2124   1      9.5581471103327509      24.045383537653244      11.179746059544657
  2125   1      1.5644500875656739      36.896733800350262       30.12459369527145
  2126   2      1.9502049036777587      37.575376532399297      30.160311733800352
  2127   1      2.7074273204903672      37.418217162872153      29.996008756567424
  2128   1      1.6858914185639227      38.032567425569169       29.58167950963222
  2129   2      1.8287635726795097      38.039711033274955       31.12469877408056
  2130   1      1.0643975481611205      38.175439579684763      31.274714535901925
  2131   1      2.1002206654991245       37.56108931698774      31.703330998248685
  2132   3      2.3502469352014006      38.904087565674253      31.131842381786335
  2133   1       2.264523642732049      39.175544658493877       31.73904903677758
  2134   1      18.751970227670753      29.374514886164622      36.753861646234668
  2135   2      18.259061295971982      28.910180385288964      36.368106830122592
  2136   1      18.266204903677757      28.210106830122584       36.73243082311734
  2137   1      17.530413309982489      29.203068301225919      36.468117338003509
  2138   2      18.516231173380035      28.831600700525392      35.325140105078809
  2139   1      18.516231173380035      29.538817863397544      34.982246935201402
  2140   1      19.252022767075307      28.538712784588444      35.246560420315241
  2141   3      17.859019264448335      28.217250437828369        34.8750928196147
  2142   1       18.03760945709282      28.181532399299467      34.232168126094571
  2143   1      10.379661996497374      6.3720980735551667       3.871835376532399
  2144   2      10.001050788091067      6.0792101576182125      4.4861856392294222
  2145   1      10.415380035026271      6.2863747810858142      5.1291103327495611
  2146   1      9.3081208406304725      6.4506777583187391      4.5361908931698762
  2147   2      9.8867530647985991      5.0076690017513137      4.4004623467600705
  2148   1      9.4795674255691775      4.8290788091068304      3.7503940455341507
  2149   1      10.593970227670754      4.6576322241681263      4.3504570928196147
  2150   3      9.4009877408056024      4.6790630472854646      5.2219772329246936
  2151   1      9.3366952714535909      4.0147075306479865      5.1576847635726795
  2152   1      7.3793467600700504      4.2218721541155873      11.522639229422065
  2153   2      7.2364746059544647      4.3576007005253938      10.765416812609455
  2154   1      7.2436182136602447      3.6575271453590195      10.393949211908932
  2155   1      6.5006830122591941      4.6362014010507879      10.701124343257442
  2156   2      7.9579789842381778      5.0433870402802103      10.351087565674256
  2157   1      7.9436917688266204       5.729173380035026      10.736842381786339
  2158   1      8.6937705779334511      4.7504991243432579      10.422523642732047
  2159   3      7.7436707530647979      5.1791155866900169      9.3724133099824876
  2160   1      8.2008616462346744      5.6077320490367777       9.129530647985991
  2161   1      9.1223870402802092      18.094758318739053      32.767728546409806
  2162   2      9.4509929947460591      17.909024518388794      33.453514886164619
  2163   1      10.236789842381787      17.873306479859892      33.332073555166374
  2164   1      9.3224080560420308      18.501943957968475      33.953567425569176
  2165   2      9.0580945709281959      16.973211908931699      33.832126094570931
  2166   1      8.2794413309982495      17.023217162872154      33.932136602451841
  2167   1      9.1938231173380025      16.387436077057796      33.317786339754818
  2168   3      9.5224290718038525      16.773190893169875      34.703646234676008
  2169   1      9.2652591943957958      16.187415061295972      34.925098073555162
  2170   1      18.130476357267952     0.30003152364272634      14.794411558669003
  2171   2      17.816157618213662     0.34289316987740637      15.508772329246934
  2172   1      18.194768826619967     0.92152539404553691      15.894527145359017
  2173   1      17.066078809106827     0.57863222416813298      15.430192644483364
  2174   2      17.887593695271452       40.18993695271454      16.023112084063047
  2175   1      17.516126094570929      39.625591943957971      15.623070052539402
  2176   1      18.651959719789843      39.968485113835371      16.087404553415059
  2177   3       17.48040805604203      40.297091068301221        16.9374938704028
  2178   1      17.537556917688267      39.704171628721532      17.244669001751316
  2179   1      38.718353765323997      20.402143607705778      35.225129597197899
  2180   2      39.132683012259193      20.987919439579688      34.910810858143606
  2181   1      38.682635726795098      21.630844133099821      34.932241681260948
  2182   1      39.747033274956216      21.123647985989493      35.382288966725042
  2183   2      39.447001751313479       20.73789316987741      33.903562171628728
  2184   1      39.889905429071803      20.087824868651488      33.903562171628728
  2185   1      38.818364273204907      20.602164623467601      33.446371278458848
  2186   3      39.975628721541156      21.516546409807358       33.53923817863398
  2187   1      40.161362521891419      21.352243432574433      32.917744308231171
  2188   1      32.060511383537659      22.309486865148866      7.8436812609457087
  2189   2      31.360437828371278      22.016598949211911      8.0365586690017512
  2190   1      31.489022767075312      21.316525394045534      8.3794518388791595
  2191   1      31.046119089316985      22.480933450087562      8.5794728546409811
  2192   2      30.724656742556917      21.930875656742558      7.1650385288966723
  2193   1      30.617502626970225      22.638092819614712      6.8292889667250432
  2194   1      31.060406304728545      21.459397548161117      6.6149807355516641
  2195   3      29.845992994746062      21.545120840630474      7.4579264448336255
  2196   1      29.460238178633968      21.495115586690012      6.9078686514886156
  2197   1      21.530833625218911      24.109676007005255      38.182583187390541
  2198   2      21.130791593695275      24.631159369527143      38.611199649737308
  2199   1       20.96648861646235      24.288266199649733      39.296985989492121
  2200   1       21.62370052539405      25.231222416812606      38.768359019264444
  2201   2      20.244984238178635      24.966908931698775      38.096859894921188
  2202   1      20.430718038528894        25.3026584938704      37.403929947460597
  2203   1      19.766362521891413      24.352558669001748       37.93255691768826
  2204   3      19.766362521891413       25.63126444833625      38.682635726795098
  2205   1      19.216304728546408      25.824141856392298      38.354029772329248
  2206   1      14.908709281961473      11.822670753064799     0.12858493870402801
  2207   2      15.501628721541154      12.051266199649739      0.5786322241681261
  2208   1      16.108835376532397      11.565500875656744     0.42147285464098067
  2209   1      15.715936952714534       12.77277057793345     0.33574956217162871
  2210   2      15.230171628721541      12.044122591943957      1.6215989492119089
  2211   1      14.615821366024514      12.522744308231172       1.750183887915937
  2212   1      15.008719789842379      11.308330998248685      1.8430507880910683
  2213   3      16.030255691768829      12.337010507880908       2.157369527145359
  2214   1      15.844521891418564       12.32272329246935      2.8074378283712784
  2215   1      21.523690017513136      21.409392294220666      29.103057793345002
  2216   2      21.102217162872158      20.752180385288966      29.095914185639234
  2217   1      21.280807355516636      20.373569176882661      28.424415061295971
  2218   1      21.359387040280211      20.294989492119093      29.681690017513137
  2219   2      20.044963222416815      20.959345008756571      29.181637478108581
  2220   1      19.894947460595446      21.345099824868651      29.853136602451844
  2221   1      19.802080560420311      21.423679509632226      28.581574430823117
  2222   3       19.55205429071804      20.087824868651488      29.160206654991242
  2223   1       18.89484238178634      20.230697022767075      29.217355516637479
  2224   1      16.566026269702274      35.003677758318737      6.7292784588441332
  2225   2      17.301817863397549      35.139406304728546      6.9721611208406298
  2226   1      17.273243432574432      35.725182136602456      7.5007880910683014
  2227   1      17.551844133099824      34.496481611208402      7.3507723292469338
  2228   2      17.944742556917689      35.382288966725042      6.1363590192644475
  2229   1      17.951886164623467      34.789369527145354      5.6077320490367777
  2230   1      17.673285464098075      36.025213660245186      5.7506042031523652
  2231   3      18.866267950963223      35.553735551663749      6.4863957968476358
  2232   1      19.259166374781081      35.703751313485107      5.9577688266199642
  2233   1      5.0648178633975469      35.232273204903684      17.087509632224165
  2234   2      4.6219141856392296      34.896523642732042      16.537451838879157
  2235   1      4.5147600700525397      35.425150612959719      15.958819614711034
  2236   1      5.0362434325744312      34.303604203152361      16.230276707530646
  2237   2      3.6861015761821365      34.560774080560421      16.958924693520142
  2238   1      3.8075429071803852      34.039290718038529      17.537556917688267
  2239   1      3.2860595446584937      35.167980735551666      17.273243432574432
  2240   3      3.1431873905429071      34.139301225919439      16.223133099824871
  2241   1      2.5645551663747805      33.939280210157619      16.494590192644488
  2242   1       19.10915061295972       24.25969176882662       12.22985639229422
  2243   2      18.844837127845885      23.666772329246935       11.80123992994746
  2244   1       19.18058669001751      23.002416812609461      12.072697022767075
  2245   1      18.066183887915933      23.595336252189139      11.929824868651487
  2246   2      19.052001751313483      23.823931698774079      10.751129597197897
  2247   1      18.716252189141859      24.488287215411557      10.493959719789844
  2248   1       19.83779859894921       23.88822416812609      10.629688266199647
  2249   3      18.701964973730298      23.030991243432577      10.236789842381787
  2250   1      18.837693520140107      23.138145359019262      9.5867215411558675
  2251   1      19.909234676007003      29.981721541155867      17.108940455341507
  2252   2      20.495010507880913      30.196029772329247       17.58041856392294
  2253   1      21.102217162872158       29.71026444833625      17.430402802101575
  2254   1       20.72360595446585      30.917534150612958      17.358966725043778
  2255   2       20.19497898423818      30.167455341506127      18.616241681260945
  2256   1      19.587772329246938      30.646077057793342      18.744826619964975
  2257   1      19.959239929947461      29.431663747810855      18.816262697022768
  2258   3      20.980775831873903      30.438912434325744       19.18058669001751
  2259   1      20.780754816112083       30.41033800350262      19.823511383537653
  2260   1      34.603635726795098       2.864586690017513       6.986448336252189
  2261   2      34.860805604203151      2.1645131348511382      6.7507092819614698
  2262   1      34.689359019264451      1.6501733800350262      7.3221978984238181
  2263   1      34.432189141856398      1.9573485113835378      6.1220718038528892
  2264   2       35.91805954465849      2.1930875656742557      6.5221138353765333
  2265   1      36.068075306479855      2.7217145359019264      5.9577688266199642
  2266   1      36.332388791593694      2.4073957968476352      7.1650385288966723
  2267   3      36.196660245183892      1.2715621716287213      6.2292259194395792
  2268   1      36.853872154115585      1.3001366024518386      6.0934973730297708
  2269   1      35.060826619964978      6.1363590192644475      1.5430192644483363
  2270   2      34.689359019264451      5.6148756567425568       1.993066549912434
  2271   1      33.939280210157619      5.5863012259194402      1.7430402802101574
  2272   1      35.010821366024508      4.9076584938704029      1.8430507880910683
  2273   2      34.767938704028026      5.8720455341506117      3.0360332749562167
  2274   1      35.525161120840629      5.9077635726795084      3.2646287215411562
  2275   1      34.446476357267947      6.5864063047285457      3.1717618213660246
  2276   3      34.275029772329248      5.1719719789842387      3.5718038528896674
  2277   1      34.325035026269703      5.3505621716287211      4.2147285464098072
  2278   1      32.989180385288975     0.60720665499124338      30.674651488616458
  2279   2      33.046329246935208     0.80722767075306479      29.917429071803845
  2280   1      33.060616462346758      1.6001681260945708      29.888854640980739
  2281   1      33.739259194395792     0.55005779334500882      29.660259194395795
  2282   2       32.22481436077058      0.4000420315236427      29.345940455341506
  2283   1      32.217670753064795      40.404245183887916      29.395945709281968
  2284   1      31.531884413309978     0.66435551663747794      29.624541155866897
  2285   3      32.339112084063046     0.68578633975481607      28.388697022767072
  2286   1       31.82477232924693     0.42861646234675999      28.045803852889673
  2287   1      26.131316987740803      33.967854640980732       25.45981786339755
  2288   2      26.638513134851134      34.317891418563924      25.945583187390543
  2289   1       26.21704028021016      34.682215411558673      26.502784588441333
  2290   1      27.045698774080559      33.746402802101578       26.30276357267951
  2291   2      27.288581436077056      34.989390542907181      25.409812609457092
  2292   1      27.688623467600696      34.603635726795098      24.845467600700523
  2293   1      26.859964973730289      35.553735551663749      25.045488616462343
  2294   3      27.917218914185639      35.410863397548155      26.067024518388791
  2295   1      28.310117338003504      35.832336252189137      25.724131348511378
  2296   1        12.6513292469352      27.788633975481606      35.289422066549911
  2297   2      12.079840630472853      27.502889667250436      34.846518388791594
  2298   1      11.944112084063045      28.024373029772327      34.267886164623469
  2299   1       12.34415411558669      26.845677758318736      34.503625218914181
  2300   2      11.194033274956217      27.310012259194394      35.439437828371275
  2301   1      11.351192644483364      26.795672504378281      36.018070052539407
  2302   1       10.93686339754816      27.981511383537654      35.782330998248689
  2303   3      10.479672504378286      26.945688266199646      34.832231173380038
  2304   1       9.936758318739054      26.838534150612961      35.210842381786343
  2305   1      35.925203152364276      24.066814360770579      10.229646234676007
  2306   2      35.325140105078809       23.60247985989492      10.393949211908932
  2307   1      34.775082311733804      24.045383537653244      10.751129597197897
  2308   1      35.017964973730301      23.352453590192642       9.715306479859894
  2309   2      35.646602451838881      22.773821366024521      11.015443082311734
  2310   1      36.203803852889664      22.352348511383536      10.658262697022767
  2311   1       35.96092119089316      23.038134851138352      11.694085814360772
  2312   3      34.839374781085802      22.202332749562174      11.215464098073555
  2313   1      35.053683012259192      21.695136602451836      11.601218914185639
  2314   1     0.75722241681260949      39.925623467600701      38.582625218914174
  2315   2      0.5286269702276708      39.246980735551659      38.896943957968475
  2316   1      40.697133099824875      38.989810858143606       38.48975831873905
  2317   1      1.1072591943957968      38.725497373029768      38.782646234676015
  2318   2     0.30003152364273206      39.361278458844133      39.947054290718036
  2319   1     0.92866900175131351       39.63273555166375      40.339952714535904
  2320   1      40.511399299474604      39.897049036777588      40.047064798598953
  2321   3     0.01428721541155867      38.468327495621715      40.311378283712784
  2322   1      40.661415061295976      38.561194395796846     0.17144658493870435
  2323   1      26.088455341506133      35.746612959719783      7.4936444833625195
  2324   2      25.981301225919434      36.089506129597197      6.8007145359019257
  2325   1      26.381343257443078      35.660889667250437      6.2649439579684758
  2326   1       25.21693520140105      36.025213660245186      6.6221243432574424
  2327   2       26.30276357267951      37.118185639229416       6.815001751313484
  2328   1      25.902721541155866      37.525371278458849      7.3650595446584921
  2329   1      27.074273204903673      37.168190893169879      7.0078791593695264
  2330   3      26.145604203152367      37.511084063047292      5.9006199649737301
  2331   1      26.352768826619961      38.154008756567428      5.9291943957968458
  2332   1      26.667087565674255      20.059250437828371      32.924887915936949
  2333   2      26.281332749562168       19.53776707530648      33.353504378283709
  2334   1      25.509823117338005      19.694926444833627       33.28206830122592
  2335   1       26.40277408056042      18.830549912434325      33.024898423817866
  2336   2      26.609938704028018       19.55205429071804      34.382183887915936
  2337   1      27.381448336252188      19.409182136602453      34.439332749562169
  2338   1      26.488497373029769      20.273558669001755      34.703646234676008
  2339   3      26.081311733800344      18.866267950963223      34.896523642732042
  2340   1       26.28847635726795       18.89484238178634      35.532304728546414
  2341   1      35.396576182136599      32.024793345008746      20.173548161120841
  2342   2      35.189411558669001      31.274714535901925      20.144973730297725
  2343   1      34.525056042031522      31.188991243432572      20.552159369527143
  2344   1      35.017964973730301      31.103267950963218       19.39489492119089
  2345   2      35.982352014010509      30.646077057793342       20.52358493870403
  2346   1      36.646707530647987      30.746087565674255      20.109255691768826
  2347   1       36.14665499124343      30.831810858143601      21.273663747810858
  2348   3      35.675176882661994      29.688833625218908      20.466436077057796
  2349   1       36.17522942206655      29.303078809106829      20.709318739054289
  2350   1      8.4794623467600712       7.200756567425568      32.253388791593693
  2351   2      7.7365271453590188       7.429352014010508      32.289106830122591
  2352   1      7.6150858143607705      7.9294045534150621      31.681900175131346
  2353   1      7.2864798598949205      6.8007145359019257       32.15337828371279
  2354   2      7.5079316987740805      7.8865429071803854      33.239206654991243
  2355   1      7.6436602451838889      7.3864903677758322      33.832126094570931
  2356   1      7.9722661996497362      8.5223239929947461      33.360647985989495
  2357   3      6.5435446584938708      8.1651436077057795      33.232063047285465
  2358   1      6.4149597197898416       8.450887915936951      33.824982486865153
  2359   1     0.13572854640980586      34.225024518388793       33.43922767075307
  2360   2      40.497112084063048      33.796408056042033      33.924992994746049
  2361   1       40.54711733800351      33.046329246935208      33.696397548161116
  2362   1    0.035718038528900896      33.839269702276702      34.639353765323996
  2363   2      39.468432574430821      34.139301225919439      33.946423817863398
  2364   1      39.432714535901916      34.896523642732042      34.175019264448331
  2365   1      39.146970227670757      34.096439579684755      33.224919439579686
  2366   3      38.954092819614715      33.560669001751315      34.589348511383534
  2367   1       38.31831173380035      33.782120840630469      34.589348511383534
  2368   1      24.581154115586685      28.202963222416809        23.3310227670753
  2369   2      24.023952714535902      28.517281961471102      22.888119089316987
  2370   1      23.916798598949207      29.260217162872156      23.145288966725044
  2371   1      24.302553415061297      28.567287215411561      22.152327495621712
  2372   2      23.116714535901927      27.931506129597196      22.930980735551664
  2373   1      23.245299474605954      27.195714535901928      22.688098073555167
  2374   1      22.852401050788089      27.888644483362519      23.681059544658492
  2375   3      22.430928196147111       28.38155341506129      22.352348511383536
  2376   1      21.866583187390543      28.010085814360771      22.388066549912434
  2377   1      11.058304728546409      20.252127845884413      22.588087565674254
  2378   2       11.50120840630473      20.816472854640981      22.280912434325742
  2379   1      11.215464098073555      21.509402802101576      22.530938704028021
  2380   1       12.22271278458844      20.752180385288966      22.588087565674254
  2381   2      11.522639229422065      20.752180385288966      21.202227670753061
  2382   1       11.80123992994746       20.05210683012259      20.973632224168121
  2383   1      10.786847635726796      20.816472854640981      20.909339754816109
  2384   3      12.094127845884412      21.502259194395794       20.85219089316988
  2385   1      12.094127845884412      21.452253940455343      20.180691768826616
  2386   1      32.103373029772328      1.6716042031523646      36.739574430823119
  2387   2      32.617712784588441      1.6930350262697023      37.325350262697022
  2388   1      33.239206654991243      2.1073642732049036      37.075323992994754
  2389   1      32.289106830122591      2.1145078809106832      37.911126094570925
  2390   2      32.889169877408051     0.70007355516637482      37.653956217162872
  2391   1      32.253388791593693     0.30003152364273206      37.889695271453597
  2392   1      33.217775831873901     0.29288791593695274      37.053893169877412
  2393   3      33.553525394045536     0.78579684763572677      38.404035026269703
  2394   1      33.717828371278458      0.1643029772329247      38.589768826619967
  2395   1      15.837378283712784      10.686837127845884      20.230697022767075
  2396   2      15.315894921190894       11.26546935201401      20.266415061295969
  2397   1      15.694506129597197      11.915537653239928      20.502154115586691
  2398   1      15.065868651488616      11.401197898423819      19.530623467600702
  2399   2      14.494380035026269      11.008299474605955      20.916483362521891
  2400   1      14.130056042031523      10.351087565674256      20.666457092819616
  2401   1      14.758693520140101      10.865427320490367      21.652274956217166
  2402   3      13.844311733800348      11.779809106830124      20.930770577933451
  2403   1      13.344259194395796      11.608362521891419      21.337956217162869
  2404   1      34.610779334500876      35.603740805604204      7.8222504378283713
  2405   2      34.153588441330996      35.082257443082305      7.4650700525394029
  2406   1      34.439332749562169      34.967959719789839      6.7364220665499115
  2407   1      34.232168126094571      34.396471103327499      7.8508248686514879
  2408   2      33.124908931698769      35.410863397548155      7.4507828371278455
  2409   1      32.853451838879153      35.525161120840629      8.1865744308231161
  2410   1      33.060616462346758      36.103793345008754      7.0650280210157614
  2411   3      32.567707530647986      34.710789842381786       6.986448336252189
  2412   1      31.931926444833621      34.932241681260948      6.9793047285464098
  2413   1      10.343943957968477      15.715936952714534      40.639984238178634
  2414   2      10.751129597197897      15.094443082311731    0.078579684763572674
  2415   1      10.322513134851137      14.451518388791595      40.704276707530646
  2416   1      11.401197898423819      15.051581436077058      40.418532399299473
  2417   2      11.001155866900175      15.151591943957969      1.1286900175131349
  2418   1      11.422628721541153      15.794516637478109      1.2787057793345009
  2419   1      10.343943957968477      15.194453590192643      1.5715936952714535
  2420   3      11.522639229422065      14.322933450087563      1.3787162872154115
  2421   1       11.66551138353765      14.372938704028019      2.0359281961471103
  2422   1      33.524950963222402      33.689253940455345      24.416851138353763
  2423   2      32.874882661996502      33.717828371278458      23.981091068301225
  2424   1      32.396260945709287      33.153483362521889      24.245404553415057
  2425   1       32.52484588441331      34.403614711033271      24.131106830122594
  2426   2      33.103478108581442      33.610674255691769      22.930980735551664
  2427   1      33.589243432574428      34.175019264448331      22.688098073555167
  2428   1      33.460658493870405      32.910600700525393      22.795252189141856
  2429   3      32.231957968476358      33.646392294220668      22.416640980735547
  2430   1      32.389117338003494      33.574956217162871      21.766572679509633
  2431   1       30.26746584938704      22.995273204903672      11.065448336252189
  2432   2      30.360332749562168      23.223868651488615       11.80838353765324
  2433   1      29.667402802101574      23.116714535901927      12.172707530647983
  2434   1      30.867528896672496      22.723816112084066      12.144133099824867
  2435   2      30.703225919439582      24.245404553415057      11.858388791593692
  2436   1      31.389012259194395      24.331127845884414       11.47977758318739
  2437   1      30.181742556917683       24.73116987740806      11.508352014010507
  2438   3      30.803236427320495      24.495430823117339      12.829919439579683
  2439   1       31.01040105078809        25.1312119089317      12.851350262697022
  2440   1      0.4000420315236427      32.146234676007005      11.022586690017514
  2441   2      1.0929719789842383      32.217670753064795      10.679693520140106
  2442   1      1.3644290718038528      32.939175131348513      10.836852889667249
  2443   1      1.5858809106830123      31.703330998248685      11.029730297723292
  2444   2      1.0215359019264447      32.031936952714538      9.6152959719789823
  2445   1     0.74293520140105085       31.31043257443082      9.4724238178633993
  2446   1     0.52148336252189131      32.546276707530652      9.2795464098073541
  2447   3      1.9430612959719791      32.139091068301219      9.2152539404553409
  2448   1      1.8787688266199647      32.024793345008746      8.5508984238178627
  2449   1      29.117345008756566      40.332809106830119      24.609728546409801
  2450   2      28.803026269702272      39.954197898423821       25.21693520140105
  2451   1      29.310222416812607      40.011346760070055      25.816998248686517
  2452   1      28.145814360770572      40.339952714535904      25.424099824868655
  2453   2      28.588718038528896      38.925518388791588      24.959765323992997
  2454   1      28.095809106830121      38.882656742556911      24.352558669001748
  2455   1      29.260217162872156       38.54690718038529      24.745457092819613
  2456   3      28.195819614711031      38.475471103327493      25.766992994746058
  2457   1       28.07437828371279      37.832546409807357      25.595546409807351
  2458   1       17.62328021015762      13.537136602451836      9.0223765323992993
  2459   2      17.816157618213662       14.28721541155867      8.9437968476357259
  2460   1      17.601849387040282      14.651539404553414      9.6152959719789823
  2461   1      18.601954465849381      14.330077057793345       8.908078809106831
  2462   2      17.351823117338004      14.722975481611208      8.0722767075306479
  2463   1      17.566131348511384      14.344364273204903      7.4222084063047271
  2464   1      16.558882661996499      14.672970227670753      8.1222819614711046
  2465   3       17.62328021015762      15.694506129597197      8.0222714535901929
  2466   1      17.323248686514887      15.951676007005254      7.4793572679509612
  2467   1      36.482404553415059      27.981511383537654       36.17522942206655
  2468   2      36.496691768826615      28.160101576182136      35.410863397548155
  2469   1      36.332388791593694      27.495746059544661      35.010821366024508
  2470   1      35.910915936952712      28.660154115586689      35.267991243432576
  2471   2      37.453935201401059      28.574430823117339      35.132262697022767
  2472   1       37.60395096322241      29.231642732049028      35.546591943957964
  2473   1      38.039711033274955      28.060091068301222      35.282278458844132
  2474   3      37.432504378283717      28.781595446584934      34.146444833625225
  2475   1      38.032567425569169      29.038765323992994      33.989285464098074
  2476   1     0.60006304728546844       33.53923817863398      2.6002732049036772
  2477   2    0.071436077057790343      32.967749562171633      2.5074063047285464
  2478   1      40.518542907180375      33.067760070052536      1.8073327495621716
  2479   1     0.47147810858143741      32.289106830122591      2.4716882661996498
  2480   2      40.147075306479863      32.967749562171633      3.3217775831873908
  2481   1      40.511399299474604      32.874882661996502      4.0147075306479865
  2482   1      39.761320490367773      33.660679509632224      3.3432084063047292
  2483   3      39.497007005253941      32.217670753064795      3.1574746059544658
  2484   1      39.054103327495618      32.231957968476358      3.6718143607705778
  2485   1      3.0217460595446584      24.245404553415057      9.1938231173380025
  2486   2      3.4717933450087561        23.7453520140105      8.8009246935201411
  2487   1      3.5789474605954466      24.045383537653244      8.0794203152364279
  2488   1      4.1790105078809106      23.731064798598947      9.1509614711033258
  2489   2      3.0217460595446584      22.759534150612961      8.7723502626970227
  2490   1      2.9145919439579684      22.488077057793344      9.5009982486865159
  2491   1      2.3145288966725044      22.788108581436077      8.4223134851138362
  2492   3      3.6360963222416811      22.152327495621712      8.2508669001751311
  2493   1      3.3432084063047292      21.545120840630474      8.2437232924693493
  2494   1       10.72255516637478     0.51433975481611738      40.568548161120837
  2495   2      10.265364273204904      40.782856392294221      40.211367775831867
  2496   1      10.215359019264447      40.154218914185648      40.682845884413311
  2497   1      9.5367162872154108     0.30003152364272634      40.175649737302976
  2498   2      10.636831873905429      40.532830122591939       39.23269352014011
  2499   1      10.686837127845884     0.39289842381785889      38.782646234676015
  2500   1        11.3726234676007      40.232798598949209      39.282698774080558
  2501   3      10.015338003502627      39.861330998248675      38.818364273204907
  2502   1      10.265364273204904      39.718458844133096      38.211157618213662
  2503   1      23.195294220665499      9.0009457092819609      32.089085814360772
  2504   2      22.930980735551664      9.3438388791593674      32.739154115586686
  2505   1      23.452464098073555      9.8938966725043773      32.946318739054291
  2506   1      22.259481611208404      9.7224500875656741       32.55342031523643
  2507   2      22.766677758318739       8.615190893169876      33.517807355516638
  2508   1      22.245194395796844      8.0651330998248678      33.289211908931698
  2509   1      23.445320490367777      8.2365796847635728      33.689253940455345
  2510   3      22.423784588441329      9.0938126094570926      34.332178633975481
  2511   1      22.338061295971972       8.629478108581436      34.810800350262703
  2512   1       18.12333274956217      37.625381786339759      16.887488616462349
  2513   2      18.687677758318735       37.27534500875656      16.480302977232924
  2514   1      19.259166374781081      37.082467600700518      16.987499124343259
  2515   1      18.394789842381783      36.603845884413303      16.194558669001747
  2516   2      19.052001751313483       37.91826970227671      15.687362521891417
  2517   1       18.46622591943958      38.111147110332752      15.194453590192643
  2518   1       19.33774605954466      38.596912434325738      15.987394045534151
  2519   3       19.78064973730298      37.425360770577932      15.194453590192643
  2520   1      20.002101576182135      37.832546409807357      14.708688266199651
  2521   1       33.31064273204904      15.823091068301226      17.237525394045534
  2522   2      32.817733800350268      15.230171628721541       17.38039754816112
  2523   1      32.174809106830118      15.344469352014009        16.9374938704028
  2524   1      33.160626970227675      14.565816112084061      17.123227670753064
  2525   2      32.581994746059543      15.173022767075308      18.437651488616456
  2526   1      33.239206654991243      15.073012259194392      18.859124343257445
  2527   1      32.246245183887915      15.844521891418564       18.68053415061296
  2528   3      31.953357267950956      14.401513134851136      18.573380035026268
  2529   1      31.810485113835377      14.380082311733799      19.230591943957965
  2530   1      16.516021015761819      5.2005464098073544      22.888119089316987
  2531   2      17.016073555166376      5.5934448336252194      23.338166374781085
  2532   1      16.773190893169875      6.3435236427320492      23.366740805604202
  2533   1      16.951781085814364      5.3077005253940444       24.07395796847636
  2534   2      18.030465849387042      5.5005779334500877      22.966698774080555
  2535   1        18.2519176882662      4.7504991243432579      22.945267950963224
  2536   1      18.080471103327497       5.786322241681261      22.230907180385291
  2537   3       18.63767250437828      6.0292049036777575      23.581049036777586
  2538   1      19.259166374781081      5.9649124343257434      23.338166374781085
  2539   1      38.175439579684763      23.995378283712785      33.232063047285465
  2540   2      38.639774080560422      23.545330998248687      32.796302977232926
  2541   1      39.382709281961468       23.78821366024518      32.917744308231171
  2542   1      38.596912434325738      22.809539404553412      33.082047285464093
  2543   2      38.361173380035019      23.581049036777586      31.753336252189143
  2544   1      37.611094570928195      23.345309982486864      31.660469352014015
  2545   1      38.404035026269703      24.331127845884414      31.481879159369527
  2546   3      38.989810858143606      22.995273204903672       31.23899649737303
  2547   1       38.80407705779335      23.030991243432577      30.588928196147108
  2548   1      25.938439579684761      25.581259194395798      9.6510140105078808
  2549   2      25.588402802101577      24.888329246935204      9.6152959719789823
  2550   1      26.131316987740803      24.338271453590192      9.7867425569176891
  2551   1      25.052632224168125      24.859754816112083      10.193928196147111
  2552   2        25.1312119089317      24.724026269702275      8.6509089316987744
  2553   1      24.602584938704027      25.281227670753065      8.4937495621716295
  2554   1      25.681269702276708      24.752600700525392      8.0794203152364279
  2555   3      24.695451838879158      23.816788091068304      8.6580525394045527
  2556   1      24.423994746059542      23.723921190893172      8.0437022767075295
  2557   1      20.330707530647988      2.3359597197898418      36.460973730297717
  2558   2      20.730749562171631      1.7787583187390543      36.096649737302968
  2559   1      21.373674255691768      1.6215989492119089      36.532409807355513
  2560   1      20.287845884413308      1.1215464098073555      36.103793345008754
  2561   2      20.980775831873903      2.0716462346760069      35.089401050788091
  2562   1      20.330707530647988      2.2359492119089315      34.675071803852887
  2563   1      21.423679509632226      2.7360017513134847      35.096544658493876
  2564   3      21.502259194395794      1.3287110332749559      34.660784588441331
  2565   1      21.652274956217166      1.5287320490367775      34.032147110332751
  2566   1       12.22271278458844      10.165353765323994      32.139091068301219
  2567   2      11.451203152364274      10.215359019264447      32.196239929947453
  2568   1      11.272612959719789      10.236789842381787      32.967749562171633
  2569   1      11.229751313485114      10.908288966725044      31.889064798598945
  2570   2      10.965437828371279      9.3867005253940459      31.689043782837128
  2571   1      11.165458844133099      9.3795569176882658       30.92467775831874
  2572   1      11.201176882661997      8.7009141856392294      32.003362521891425
  2573   3      9.9724763572679507      9.4867110332749558      31.796197898423813
  2574   1      9.6867320490367774      8.9652276707530643      31.481879159369527
  2575   1      19.630633975481611      14.015758318739053      31.003257443082308
  2576   2       19.86637302977233      13.308541155866898      30.774661996497368
  2577   1      20.302133099824868      13.001366024518388      31.360437828371278
  2578   1      19.223448336252183      12.851350262697022      30.710369527145357
  2579   2       20.40928721541156      13.365690017513135      29.845992994746062
  2580   1      19.966383537653236      13.680008756567423      29.281647985989494
  2581   1      21.052211908931699       13.83002451838879       29.92457267950963
  2582   3      20.702175131348511      12.429877408056042       29.59596672504378
  2583   1      21.045068301225918      12.487026269702275      29.017334500875656
  2584   1      29.145919439579682      12.622754816112083      19.480618213660247
  2585   2      29.781700525394044      13.022796847635727      19.273453590192645
  2586   1      29.960290718038525       13.50141856392294      19.880660245183886
  2587   1      30.374619964973725      12.508457092819613       19.20916112084063
  2588   2      29.631684763572675      13.565711033274958      18.359071803852885
  2589   1      29.438807355516644      13.072802101576183      17.766152364273207
  2590   1      29.024478108581434      14.080050788091068      18.430507880910682
  2591   3      30.474630472854635       14.06576357267951       18.13761996497373
  2592   1      30.360332749562168      14.401513134851136      17.566131348511384
  2593   1      16.766047285464097      39.454145359019265     0.74293520140105085
  2594   2      16.780334500875657      38.725497373029768      1.0286795096322241
  2595   1      16.280281961471101      38.289737302977237     0.60006304728546411
  2596   1      17.501838879159369      38.432609457092816     0.89295096322241685
  2597   2      16.544595446584935      38.711210157618211      2.0787898423817861
  2598   1      17.051791593695274      39.161257443082313      2.4859754816112081
  2599   1      15.815947460595446      39.011241681260948      2.2002311733800353
  2600   3      16.573169877408056       37.76111033274956      2.4002521891418565
  2601   1      16.416010507880912      37.768253940455338       3.057464098073555
  2602   1      21.616556917688264      16.694611208406304      35.582309982486862
  2603   2      21.409392294220666      17.423259194395797      35.375145359019257
  2604   1      22.052316987740802      17.873306479859892      35.396576182136599
  2605   1      21.173653239929944      17.394684763572677      34.617922942206654
  2606   2       20.62359544658494      17.794726795096324      36.018070052539407
  2607   1      19.987814360770578      17.330392294220665      35.989495621716287
  2608   1      20.866478108581429       17.80901401050788       36.77529246935201
  2609   3      20.394999999999996      18.730539404553415       35.71803852889667
  2610   1      19.909234676007003      18.951991243432577      36.132367775831867
  2611   1      32.967749562171633      18.866267950963223      19.587772329246938
  2612   2      33.317786339754818       18.35192819614711       20.05210683012259
  2613   1      33.067760070052536      17.630423817863399       19.83779859894921
  2614   1      34.089295971978984      18.380502626970227      19.909234676007003
  2615   2      33.103478108581442      18.559092819614708      21.095073555166369
  2616   1      33.346360770577931      19.287740805604205      21.287950963222418
  2617   1      32.317681260945712      18.537661996497377      21.230802101576177
  2618   3      33.567812609457093      17.866162872154113      21.659418563922937
  2619   1      33.424940455341513      18.009035026269704      22.302343257443081
  2620   1      35.032252189141857      3.3574956217162861      23.959660245183883
  2621   2      35.546591943957964      3.7575376532399294      23.516756567425571
  2622   1      35.596597197898426      4.4861856392294222      23.816788091068304
  2623   1      36.253809106830126      3.4217880910683012      23.609623467600702
  2624   2      35.239416812609456       3.764681260945709      22.480933450087562
  2625   1      35.182267950963222       3.028889667250438      22.202332749562174
  2626   1      34.525056042031522       4.093287215411558      22.402353765323994
  2627   3       35.91805954465849      4.2861646234675996      21.959450087565671
  2628   1       35.71803852889667      4.2861646234675996      21.316525394045534
  2629   1      36.796723292469352       32.88202626970228      12.487026269702275
  2630   2       37.00388791593695      32.732010507880908      11.751234676007003
  2631   1      36.382394045534149      32.903457092819615      11.294043782837127
  2632   1      37.582520140105075      33.232063047285465      11.551213660245185
  2633   2      37.318206654991243      31.703330998248685      11.636936952714535
  2634   1      37.925413309982488       31.53902802101576       12.10841506129597
  2635   1      36.725287215411555       31.21042206654991      11.844101576182133
  2636   3      37.568232924693525      31.546171628721542      10.672549912434325
  2637   1      37.753966725043782      30.903246935201395      10.622544658493871
  2638   1      7.7293835376532396      38.811220665499114      5.5505831873905436
  2639   2      7.5793677758318729      38.482614711033264       4.857653239929947
  2640   1      7.1364640980735548      37.839690017513135      5.0005253940455336
  2641   1      7.1293204903677756      38.982667250437821      4.4504676007005255
  2642   2      8.4866059544658494      38.239732049036775      4.3290262697022763
  2643   1      8.9223660245183893      38.882656742556911      4.2075849387040281
  2644   1      8.9295096322241676      37.739679509632218      4.7576427320490371
  2645   3      8.2365796847635728      37.811115586690015      3.4503625218914182
  2646   1      8.8152119089316994       37.66109982486865      3.1360437828371275
  2647   1      38.139721541155865      35.875197898423814      40.047064798598953
  2648   2      37.625381786339759      35.696607705779336      39.489863397548156
  2649   1       37.46107880910683      34.925098073555162       39.56129947460596
  2650   1       36.96102626970228      36.082362521891426      39.639879159369521
  2651   2       38.01828021015762      35.939490367775832      38.511189141856391
  2652   1      38.182583187390541       36.70385639229422      38.461183887915929
  2653   1      38.696922942206655      35.539448336252192      38.375460595446583
  2654   3      37.325350262697022      35.675176882661994      37.825402802101578
  2655   1       37.58966374781086      35.832336252189137      37.218196147110334
  2656   1        30.6960823117338       32.29625043782837      34.032147110332751
  2657   2      30.017439579684758       31.92478283712785      33.982141856392289
  2658   1      29.488812609457092      32.431978984238178      33.689253940455345
  2659   1      30.103162872154115      31.346150612959718      33.453514886164619
  2660   2      29.717408056042032      31.531884413309978      34.946528896672504
  2661   1      30.260322241681259      31.038975481611203      35.232273204903684
  2662   1      29.638828371278457       32.12480385288967      35.475155866900181
  2663   3      28.831600700525392      31.060406304728545      34.832231173380038
  2664   1      28.653010507880907      30.831810858143601      35.439437828371275
  2665   1       32.98203677758319      36.853872154115585      15.223028021015759
  2666   2      33.074903677758314      36.218091068301227      14.780124343257439
  2667   1      33.846413309982488       36.14665499124343      14.622964973730298
  2668   1      32.874882661996502      35.596597197898426      15.215884413309981
  2669   2      32.474840630472855      36.282383537653239      13.880029772329245
  2670   1      31.710474605954467      36.360963222416807      14.058619964973728
  2671   1      32.682005253940446      36.918164623467604      13.451413309982485
  2672   3       32.62485639229422      35.446581436077054      13.344259194395796
  2673   1      32.253388791593693      35.496586690017516      12.787057793345008
  2674   1      37.725392294220661      19.216304728546408      17.337535901926444
  2675   2      38.139721541155865      19.730644483362521      17.766152364273207
  2676   1      38.889800350262696      19.673495621716285      17.530413309982489
  2677   1      37.889695271453597      20.452148861646233      17.573274956217166
  2678   2       38.01828021015762       19.53776707530648      18.823406304728547
  2679   1       37.26105779334501      19.587772329246938      19.030570928196148
  2680   1      38.268306479859895      18.801975481611205      19.001996497373032
  2681   3      38.568338003502625      20.216409807355515        19.3234588441331
  2682   1       38.48975831873905       20.08068126094571        19.9806707530648
  2683   1      23.281017513134849   0.0071436077057793349      18.859124343257445
  2684   2        23.3310227670753     0.70721716287215408      18.509087565674257
  2685   1      22.645236427320487      1.0786847635726795      18.623385288966727
  2686   1      23.881080560420315      1.1215464098073555      18.887698774080558
  2687   2      23.573905429071804     0.59291943957968474      17.458977232924692
  2688   1      24.252548161120838     0.21430823117337999      17.373253940455342
  2689   1      23.016704028021014     0.17144658493870402      17.094653239929947
  2690   3      23.623910683012255       1.514444833625219      17.051791593695274
  2691   1      23.766782837127842      1.4287215411558669      16.401723292469349
  2692   1      38.989810858143606      29.946003502626972      40.418532399299473
  2693   2       38.87551313485114       29.48166900175131     0.25002626970227676
  2694   1       38.11829071803853      29.567392294220664     0.46433450087565675
  2695   1      38.961236427320493      28.738733800350257   0.0071436077057793349
  2696   2      39.554155866900174      29.724551663747807      1.0501103327495622
  2697   1      40.304234676007006      29.638828371278457     0.81437127845884416
  2698   1      39.461288966725043      30.481774080560417      1.2787057793345009
  2699   3      39.361278458844133      29.110201401050784      1.8287635726795097
  2700   1      39.789894921190893      29.267360770577938      2.3145288966725044
  2701   1      21.559408056042027      13.665721541155865      12.494169877408057
  2702   2      22.066604203152366      14.237210157618211      12.315579684763572
  2703   1      22.795252189141856       13.95146584938704      12.458451838879158
  2704   1      22.016598949211911      14.365795096322241      11.544070052539405
  2705   2      21.859439579684761      15.130161120840629      12.887068301225918
  2706   1      21.130791593695275      15.387330998248684      12.744196147110333
  2707   1      21.916588441330994      14.980145359019263      13.665721541155865
  2708   3      22.538082311733795      15.830234676007008      12.629898423817863
  2709   1      22.402353765323994      16.380292469352014      12.994222416812606
  2710   1      6.2649439579684758      36.410968476357269      1.2501313485113834
  2711   2      6.9078686514886156      36.110936952714532      1.5787373029772329
  2712   1      6.7935709281961465      35.332283712784587      1.6358861646234677
  2713   1      7.5007880910683014      36.210947460595442      1.0643975481611205
  2714   2      7.1221768826619964      36.568127845884412      2.5288371278458843
  2715   1      7.2221873905429073      37.346781085814364      2.4502574430823119
  2716   1      6.5149702276707533      36.460973730297717       3.028889667250438
  2717   3      7.9508353765323987      36.139511383537659      2.9074483362521883
  2718   1      8.0651330998248678      36.439542907180382      3.5003677758318741
  2719   1      37.139616462346758      29.374514886164622      2.2859544658493873
  2720   2      36.618133099824874      28.838744308231167      2.0645026269702274
  2721   1      35.910915936952712      29.060196147110325      2.3502469352014006
  2722   1      36.568127845884412      28.867318739054294      1.2787057793345009
  2723   2      36.903877408056047      27.852926444833628      2.4073957968476352
  2724   1      37.611094570928195      27.652905429071804      2.1216514886164624
  2725   1       36.96102626970228      27.838639229422068      3.2003362521891416
  2726   3      36.203803852889664      27.195714535901928      2.1002206654991245
  2727   1      36.396681260945705      26.588507880910683      2.3216725043782835
  2728   1       33.01061120840631      33.667823117337996       32.29625043782837
  2729   2      32.546276707530652      33.639248686514883      31.667612959719786
  2730   1      31.931926444833621      33.174914185639231      31.853346760070046
  2731   1      32.253388791593693      34.360753064798594      31.553315236427323
  2732   2      33.074903677758314       33.28206830122592       30.79609281961471
  2733   1      33.689253940455345      33.753546409807356      30.638933450087567
  2734   1      33.367791593695273       32.55342031523643      30.931821366024511
  2735   3      32.431978984238178      33.260637478108578       30.02458318739054
  2736   1       32.78201576182137      33.032042031523638      29.488812609457092
  2737   1       18.13761996497373      39.904192644483359      28.981616462346761
  2738   2      18.623385288966727      39.689884413309983      28.410127845884407
  2739   1      18.216199649737302      39.697028021015768      27.731485113835372
  2740   1       19.18058669001751      40.247085814360773      28.352978984238174
  2741   2      19.059145359019265      38.718353765323997      28.610148861646231
  2742   1      19.452043782837126      38.725497373029768      29.295935201401047
  2743   1      18.487656742556918      38.168295971978978      28.674441330998246
  2744   3      19.673495621716285      38.482614711033264      27.852926444833628
  2745   1      19.930665499124338      37.875408056042026      27.988654991243429
  2746   1      25.038345008756561       12.12984588441331      8.0222714535901929
  2747   2      25.288371278458843      12.294148861646235      7.3007670753064797
  2748   1      25.688413309982483      12.972791593695272      7.3364851138353764
  2749   1      25.802711033274957      11.729803852889665      7.0936024518388789
  2750   2       24.45971278458844       12.34415411558669      6.6078371278458841
  2751   1      24.066814360770579       11.66551138353765      6.5864063047285457
  2752   1      23.945373029772323      12.908499124343258      6.8292889667250432
  2753   3      24.831180385288967      12.558462346760068      5.6934553415061302
  2754   1      24.302553415061297      12.594180385288967      5.2719824868651486
  2755   1      1.6858914185639227      11.958399299474603      12.022691768826622
  2756   2      2.4002521891418565      12.094127845884412      11.736947460595447
  2757   1      2.7074273204903672      11.394054290718039      11.522639229422065
  2758   1      2.3216725043782835      12.515600700525392      11.072591943957969
  2759   2      3.0217460595446584      12.608467600700525      12.458451838879158
  2760   1      2.6931401050788093      13.294253940455341      12.665616462346758
  2761   1      3.0931821366024517      12.172707530647983      13.115663747810858
  2762   3      3.9289842381786335       12.75133975481611      12.044122591943957
  2763   1      4.3004518388791588      13.065658493870401      12.508457092819613
  2764   1     0.44290367775831868      39.032672504378283      26.088455341506133
  2765   2      1.0786847635726795      38.796933450087565      25.709844133099825
  2766   1      1.6858914185639227      39.218406304728553      25.988444833625213
  2767   1      1.2144133099824868      38.046854640980733      25.909865148861645
  2768   2     0.96438704028021027      38.911231173380024      24.638302977232918
  2769   1     0.35003677758318741      38.496901926444828      24.381133099824861
  2770   1      0.8286584938704028      39.675597197898419      24.452569176882662
  2771   3       1.814476357267951      38.604056042031523      24.195399299474605
  2772   1      1.7287530647985987      38.682635726795098      23.531043782837124
  2773   1      5.5720140105078801       3.871835376532399      37.139616462346758
  2774   2      5.5005779334500877      3.1074693520140104       37.26105779334501
  2775   1      6.2292259194395792      2.8145814360770576       37.36106830122592
  2776   1      5.1291103327495611      3.0146024518388788      37.953987740805601
  2777   2      4.9719509632224161      2.6288476357267951      36.453830122591945
  2778   1      4.2504465849387039      2.9360227670753059      36.368106830122592
  2779   1      5.3577057793345002      2.7360017513134847      35.768043782837125
  2780   3      4.9076584938704029      1.6430297723292469      36.653851138353758
  2781   1      4.5790525394045538      1.3572854640980736      36.139511383537659
  2782   1      7.2650490367775813      8.4937495621716295     0.14287215411558671
  2783   2      6.5721190893169874      8.2722977232924677      40.647127845884413
  2784   1      6.0720665499124333      8.8723607705779344      40.754281961471108
  2785   1      6.6578423817863399      8.1865744308231161      39.868474605954468
  2786   2      6.2292259194395792      7.3650595446584921     0.32860595446584939
  2787   1      6.7435656742556906      6.7792837127845882     0.21430823117337999
  2788   1      6.1577898423817858      7.4650700525394029      1.1144028021015762
  2789   3      5.3362749562171627      7.1221768826619964      40.718563922942209
  2790   1      5.1291103327495611      6.5578318739054291     0.23573905429071806
  2791   1      40.411388791593694      13.208530647985986      23.088140105078811
  2792   2      40.125644483362521      12.622754816112083      22.659523642732051
  2793   1      40.482824868651491      11.958399299474603      22.902406304728547
  2794   1      39.361278458844133       12.55131873905429      22.838113835376529
  2795   2      40.268516637478108      12.801345008756567      21.602269702276708
  2796   1      39.918479859894923      13.472844133099823      21.380817863397549
  2797   1     0.25002626970228292      12.879924693520142      21.437966725043783
  2798   3      39.889905429071803       12.01554816112084      21.102217162872158
  2799   1      39.989915936952713       12.13698949211909      20.445005253940451
  2800   1      21.902301225919437       36.04664448336252      30.031726795096322
  2801   2      22.388066549912434      36.618133099824874      30.231747810858142
  2802   1      23.109570928196145      36.303814360770581      30.281753064798597
  2803   1      22.409497373029769      37.139616462346758      29.638828371278457
  2804   2      22.088035026269701      37.082467600700518      31.160416812609462
  2805   1      21.359387040280211      37.382499124343255      31.096124343257443
  2806   1      22.066604203152366      36.546697022767063      31.746192644483362
  2807   3      22.752390542907179      37.803971978984237      31.381868651488617
  2808   1      22.545225919439577      38.082572679509632      31.960500875656741
  2809   1      26.995693520140104       37.56108931698774       31.26757092819614
  2810   2      27.274294220665496      38.232588441331004       30.98182661996497
  2811   1      26.788528896672506       38.80407705779335      31.217565674255692
  2812   1      27.974367775831873      38.368316987740812      31.317576182136605
  2813   2      27.360017513134846      38.182583187390541      29.903141856392295
  2814   1      27.831495621716286      37.596807355516624      29.688833625218908
  2815   1      26.645656742556913      38.039711033274955      29.574535901926446
  2816   3      27.710054290718038      39.068390542907181      29.574535901926446
  2817   1      27.752915936952707      39.025528896672505      28.910180385288964
  2818   1      33.196345008756566      14.451518388791595      1.1715516637478109
  2819   2       33.43922767075307      15.094443082311731      1.5430192644483363
  2820   1      34.217880910683014      15.144448336252189      1.4430087565674257
  2821   1      33.117765323992998      15.715936952714534      1.1786952714535903
  2822   2      33.160626970227675      15.065868651488616       2.593129597197898
  2823   1       32.38197373029773      15.001576182136603      2.6717092819614709
  2824   1      33.482089316987746      14.430087565674256      2.9431663747810859
  2825   3      33.496376532399303      15.908814360770577       3.028889667250438
  2826   1      33.317786339754818      15.873096322241681      3.6789579684763569
  2827   1      28.960185639229426      21.216514886164624       3.164618213660245
  2828   2      29.045908931698772      21.445110332749561      3.9075534150612965
  2829   1      28.495851138353768      21.995168126094569      4.0504255691768822
  2830   1      28.874462346760069      20.823616462346759       4.364744308231173
  2831   2      30.046014010507882      21.809434325744309       4.093287215411558
  2832   1      30.581784588441327      21.252232924693519      3.9289842381786335
  2833   1      30.203173380035029      22.430928196147111      3.6146654991243432
  2834   3      30.103162872154115      22.095178633975483      5.0576742556917686
  2835   1      30.731800350262695      22.323774080560419      5.1505411558669003
  2836   1      39.982772329246934      8.6580525394045527      34.310747810858146
  2837   2      39.932767075306472      9.3652697022767075      34.639353765323996
  2838   1      40.375670753064803      9.8581786339754789      34.210737302977236
  2839   1      39.189831873905426      9.6081523642732041      34.575061295971977
  2840   2      40.247085814360773      9.3366952714535909      35.675176882661994
  2841   1      39.804182136602449      8.8366427320490377      36.089506129597197
  2842   1     0.21430823117338438      9.0866690017513143      35.732325744308227
  2843   3      40.175649737302976      10.265364273204904      36.053788091068299
  2844   1      40.375670753064803      10.236789842381787      36.696712784588442
  2845   1       24.31684063047285      18.416220665499122        12.6513292469352
  2846   2      24.881185639229422       18.78054465849387      12.244143607705778
  2847   1      24.574010507880907      19.459187390542908      11.965542907180385
  2848   1      25.445530647985986      18.980565674255693       12.75133975481611
  2849   2      25.259796847635727       18.15190718038529      11.451203152364274
  2850   1      25.552684763572678       17.48040805604203      11.744091068301223
  2851   1      24.674021015761816      17.951886164623467      10.951150612959719
  2852   3       25.97415761821366        18.6662469352014      10.958294220665497
  2853   1      26.195609457092818      18.259061295971982      10.472528896672504
  2854   1      28.524425569176881      37.611094570928195      17.423259194395797
  2855   2      28.410127845884407      36.896733800350262      17.730434325744309
  2856   1      27.681479859894921      36.675281961471107      17.537556917688267
  2857   1      28.903036777583189       36.40382486865149      17.366110332749564
  2858   2      28.567287215411561      36.911021015761825       18.79483187390543
  2859   1      29.303078809106829      37.146760070052537       18.96627845884413
  2860   1      28.067234676007004      37.418217162872153      19.144868651488618
  2861   3      28.410127845884407      35.975208406304731      19.144868651488618
  2862   1      28.510138353765328      36.003782837127844      19.809224168126097
  2863   1      32.010506129597196      8.0294150612959729     0.90009457092819234
  2864   2      31.360437828371278      7.8079632224168112     0.52862697022767136
  2865   1      31.360437828371278      7.0150227670753056     0.52148336252189897
  2866   1      30.746087565674255      8.0294150612959729     0.96438704028020783
  2867   2      31.317576182136605      8.2222924693520127      40.318521891418563
  2868   1      31.331863397548158      9.0080893169877392      40.347096322241683
  2869   1      31.946213660245188      7.9936970227670754      39.889905429071803
  2870   3       30.46748686514886      7.9008301225919437      39.882761821366024
  2871   1        30.4531996497373      8.1651436077057795      39.268411558669001
  2872   1      34.610779334500876      7.6293730297723279      14.451518388791595
  2873   2      35.210842381786343      8.1151383537653228      14.344364273204903
  2874   1      35.332283712784587      8.5008931698774077      15.015863397548161
  2875   1      35.853767075306479      7.6722346760070046      14.222922942206653
  2876   2      35.025108581436072      8.7794938704028009      13.515705779334498
  2877   1      34.903667250437827      8.3723082311733794      12.851350262697022
  2878   1      34.375040280210158      9.2152539404553409      13.651434325744306
  2879   3      35.825192644483359      9.3867005253940459      13.415695271453586
  2880   1      35.689464098073557      9.8010297723292474        12.8942119089317
  2881   1      32.739154115586686      27.781490367775831       9.772455341506129
  2882   2      33.353504378283709      27.510033274956218      10.165353765323994
  2883   1      33.967854640980732      27.488602451838872      9.6724448336252173
  2884   1      33.532094570928194      28.031516637478106      10.729698774080559
  2885   2      33.139196147110333      26.538502626970228      10.586826619964972
  2886   1      32.517702276707531      26.574220665499126      11.072591943957969
  2887   1       32.95346234676007      26.017019264448333      10.015338003502627
  2888   3      33.953567425569176       26.21704028021016      11.086879159369527
  2889   1      33.810695271453589      25.609833625218915      11.336905429071802
  2890   1      27.952936952714531      4.8076479859894912       7.429352014010508
  2891   2      28.460133099824869      4.8862276707530645      8.0151278458844146
  2892   1      29.110201401050784       4.471898423817863       7.815106830122593
  2893   1      28.674441330998246      5.6434500875656735      8.0508458844133095
  2894   2      28.031516637478106      4.5433345008756572      8.9509404553415042
  2895   1      27.388591943957969      4.9576637478108578      9.1223870402802092
  2896   1      27.817208406304722      3.7861120840630473      8.8937915936952727
  2897   3      28.731590192644482      4.6576322241681263      9.6724448336252173
  2898   1      28.452989492119084      4.4361803852889672      10.243933450087566
  2899   1      2.0573590192644482      5.6577373029772327      5.7220297723292468
  2900   2      1.4858704028021017      6.0649229422066551      6.0720665499124333
  2901   1      1.4358651488616465      5.8006094570928193       6.815001751313484
  2902   1      1.7216094570928198       6.815001751313484      6.1077845884413318
  2903   2     0.55005779334500882      5.9649124343257434      5.5362959719789844
  2904   1     0.62863747810858139      6.2149387040280208      4.7933607705779337
  2905   1     0.32860595446584939      5.2005464098073544      5.5005779334500877
  2906   3      40.639984238178634      6.5006830122591941      6.0220612959719784
  2907   1      40.068495621716288      6.4221033274956207      5.6791681260945701
  2908   1      38.682635726795098      40.561404553415059      35.510873905429065
  2909   2      39.061246935201403      39.997059544658498      35.125119089316989
  2910   1      38.632630472854643      39.339847635726784      35.182267950963222
  2911   1      39.068390542907181      40.204224168126096      34.360753064798594
  2912   2      40.061352014010509      39.861330998248675      35.503730297723287
  2913   1      40.475681260945713      40.532830122591939      35.453725043782839
  2914   1      40.039921190893175      39.668453590192648       36.27523992994746
  2915   3      40.504255691768826      39.125539404553415      34.982246935201402
  2916   1     0.33574956217162488      39.054103327495618      35.232273204903684
  2917   1      21.345099824868651      27.195714535901928      25.366950963222422
  2918   2      21.116504378283711      27.109991243432574      26.109886164623461
  2919   1       20.43786164623468      26.709949211908928      26.102742556917686
  2920   1      21.652274956217166      26.652800350262694      26.467066549912431
  2921   2      21.023637478108583      28.067234676007004      26.595651488616461
  2922   1      21.709423817863399      28.460133099824869      26.588507880910683
  2923   1      20.495010507880913      28.524425569176881      26.224183887915935
  2924   3      20.730749562171631      27.910075306479861      27.545751313485116
  2925   1      20.666457092819616      28.510138353765328      27.838639229422068
  2926   1      18.394789842381783     0.88580735551662937      4.1075744308231172
  2927   2      18.580523642732047     0.58577583187391447       3.407500875656742
  2928   1      18.073327495621715     0.87866374781086598      2.8788739054290722
  2929   1      19.294884413309983     0.85008931698773993      3.2146234676007004
  2930   2       18.55194921190893       40.28994746059545      3.4289316987740799
  2931   1      19.059145359019265      40.011346760070055      3.9718458844133102
  2932   1      17.830444833625219      40.032777583187382      3.6360963222416811
  2933   3       18.79483187390543      39.954197898423821      2.5145499124343256
  2934   1      18.766257443082306      39.282698774080558      2.5431243432574426
  2935   1      23.538187390542905      4.7719299474605954        19.7377880910683
  2936   2      24.066814360770579      5.0433870402802103      20.244984238178635
  2937   1      24.766887915936955      4.7433555166374779      20.044963222416815
  2938   1       24.11681961471103      5.8220402802101558      20.144973730297725
  2939   2      23.795357267950962      4.7933607705779337      21.259376532399294
  2940   1      23.095283712784589      5.0933922942206653      21.445110332749561
  2941   1        23.7453520140105      4.0004203152364282      21.352243432574433
  2942   3      24.509718038528899      5.1576847635726795      21.873726795096321
  2943   1      24.323984238178632      4.9933817863397545      22.502364273204904
  2944   1      20.580733800350259      14.973001751313486      28.102952714535903
  2945   2      21.173653239929944      14.637252189141854      27.717197898423812
  2946   1      20.873621716287214      14.051476357267951      27.281437828371278
  2947   1      21.459397548161117      15.173022767075308      27.202858143607703
  2948   2      21.938019264448336      14.294359019264448      28.395840630472854
  2949   1      22.223763572679509      14.894422066549911      28.824457092819618
  2950   1      21.637987740805602      13.765732049036776      28.903036777583189
  2951   3      22.673810858143604      13.872886164623466      27.852926444833628
  2952   1      23.138145359019262      13.658577933450086      28.288686514886162
  2953   1      39.275555166374787      6.4506777583187391      23.138145359019262
  2954   2      39.532725043782825       5.786322241681261      23.452464098073555
  2955   1      39.018385288966719      5.2148336252189145      23.252443082311732
  2956   1      40.218511383537653      5.6077320490367777      23.109570928196145
  2957   2       39.63273555166375      5.8791891418563926      24.524005253940455
  2958   1      40.139931698774078      6.4578213660245183      24.709739054290722
  2959   1      38.939805604203151      6.0649229422066551      24.859754816112083
  2960   3        39.9613415061296      5.0005253940455336      24.888329246935204
  2961   1      40.018490367775833       5.071961471103327      25.559828371278456
  2962   1      23.088140105078811      22.102322241681261      18.073327495621715
  2963   2      22.416640980735547      21.888014010507877      18.409077057793343
  2964   1      22.180901926444836      22.488077057793344      18.859124343257445
  2965   1      21.880870402802103      21.795147110332746      17.844732049036779
  2966   2      22.545225919439577      20.980775831873903      18.980565674255693
  2967   1      22.795252189141856      20.387856392294221       18.52337478108581
  2968   1      23.095283712784589      21.080786339754816      19.544910683012258
  2969   3      21.659418563922937      20.745036777583184      19.402038528896675
  2970   1      21.759429071803847      20.180691768826616      19.759218914185638
  2971   1      1.0215359019264447      17.144658493870399      21.745141856392294
  2972   2      1.6787478108581431      16.901775831873902      22.073747810858144
  2973   1      2.0716462346760069      16.473159369527146      21.537977232924693
  2974   1      2.1216514886164624      17.530413309982489      22.230907180385291
  2975   2      1.4787267950963219      16.330287215411559      22.973842381786344
  2976   1      1.0858283712784589      16.766047285464097      23.495325744308229
  2977   1      1.0286795096322241      15.694506129597197      22.802395796847637
  2978   3      2.3573905429071806      16.030255691768829      23.359597197898427
  2979   1      2.2145183887915936      15.673075306479859      23.909654991243432
  2980   1      21.716567425569178      31.617607705779339      28.081521891418564
  2981   2      22.223763572679509      32.189096322241681      28.245824868651489
  2982   1      21.823721541155866      32.867739054290716      28.231537653239929
  2983   1      22.466646234676006      32.089085814360772      28.988760070052539
  2984   2      23.052422066549909      32.189096322241681      27.552894921190894
  2985   1      23.431033274956214       31.49616637478108      27.574325744308229
  2986   1      22.795252189141856      32.281963222416813      26.809959719789841
  2987   3      23.673915936952714      32.939175131348513      27.802921190893169
  2988   1      24.181112084063042      32.924887915936949      27.360017513134846
  2989   1      14.222922942206653      10.193928196147111      14.415800350262696
  2990   2      13.851455341506128      10.558252189141855      13.837168126094571
  2991   1      13.072802101576183      10.465385288966726       13.95146584938704
  2992   1      13.994327495621715      11.329761821366025      13.908604203152361
  2993   2      14.165774080560421      10.186784588441331       12.87278108581436
  2994   1      14.944427320490369      10.279651488616462      12.779914185639228
  2995   1      14.015758318739053      9.4081313485113842      12.815632224168125
  2996   3      13.658577933450086      10.686837127845884      12.158420315236425
  2997   1      13.858598949211906      10.443954465849387      11.565500875656744
  2998   1      28.224394045534147      10.558252189141855       23.27387390542907
  2999   2      27.774346760070049      9.9224711033274957      23.309591943957965
  3000   1      27.295725043782838       9.929614711033274      22.680954465849386
  3001   1      28.238681260945711      9.2938336252189142       23.23101225919439
  3002   2      27.217145359019266      9.8938966725043773      24.238260945709282
  3003   1      27.710054290718038      9.8867530647985991      24.852611208406305
  3004   1      26.752810858143608      10.536821366024517      24.309697022767075
  3005   3      26.645656742556913      9.0580945709281959      24.238260945709282
  3006   1      26.309907180385284      9.0580945709281959      24.816893169877407
  3007   1      8.0222714535901929      40.661415061295976      18.444795096322242
  3008   2      7.4650700525394029      40.225654991243438       18.78054465849387
  3009   1      7.7865323992994737      39.889905429071803       19.42346935201401
  3010   1      6.9007250437828365      40.711420315236424      19.037714535901927
  3011   2      7.0721716287215406      39.489863397548156      18.094758318739053
  3012   1       6.772140105078809      39.839900175131348      17.451833625218914
  3013   1      7.6508038528896654      39.011241681260948      17.837588441330997
  3014   3      6.3649544658493875      38.954092819614715      18.566236427320494
  3015   1      6.1363590192644475      38.504045534150613      18.130476357267952
  3016   1      17.487551663747812       38.74692819614711      34.539343257443086
  3017   2      17.566131348511384       39.40414010507881      34.125014010507883
  3018   1      17.016073555166376      39.911336252189137      34.375040280210158
  3019   1      18.266204903677757      39.718458844133096      34.317891418563924
  3020   2      17.501838879159369      39.211262697022768      33.067760070052536
  3021   1      18.059040280210159      38.696922942206655      32.839164623467603
  3022   1      16.801765323992996      38.889800350262696       32.88202626970228
  3023   3      17.608992994746057      40.082782837127844      32.574851138353765
  3024   1      17.566131348511384      39.947054290718036      31.917639229422068
  3025   1      11.286900175131347      27.024267950963221      19.652064798598946
  3026   2      11.365479859894922      26.574220665499126      20.287845884413308
  3027   1      11.958399299474603      26.874252189141853      20.716462346760068
  3028   1      10.708267950963224      26.659943957968476      20.716462346760068
  3029   2      11.536926444833624        25.5455411558669      20.016388791593691
  3030   1      10.944007005253939      25.266940455341501      19.580628721541157
  3031   1      12.201281961471102      25.474105078809103      19.580628721541157
  3032   3      11.629793345008753      25.009770577933448      20.866478108581429
  3033   1      11.744091068301223      24.366845884413308      20.680744308231169
  3034   1      37.282488616462352      27.881500875656744      10.422523642732047
  3035   2      36.618133099824874      28.288686514886162      10.465385288966726
  3036   1      36.039500875656742      27.774346760070049      10.636831873905429
  3037   1      36.675281961471107      28.774451838879152      11.079735551663747
  3038   2      36.425255691768818      28.824457092819618      9.5510035026269691
  3039   1      37.011031523642735      29.324509632224171      9.3867005253940459
  3040   1      36.368106830122592      28.324404553415057      8.9366532399299459
  3041   3      35.553735551663749      29.324509632224171      9.6510140105078808
  3042   1      35.446581436077054      29.653115586690017      9.0723817863397525
  3043   1       30.92467775831874     0.54291418563922944      36.068075306479855
  3044   2      30.274609457092822     0.42861646234675999      35.646602451838881
  3045   1      29.888854640980739      40.611409807355521      35.975208406304731
  3046   1      29.817418563922946      1.0643975481611205      35.746612959719783
  3047   2      30.503204903677752     0.25716987740805602      34.603635726795098
  3048   1      30.888959719789838     0.87152014010507872      34.303604203152361
  3049   1      30.967539404553417      40.411388791593694      34.525056042031522
  3050   3      29.638828371278457     0.11429772329246936      34.110726795096319
  3051   1        29.7959877408056   0.0071436077057793349      33.467802101576176
  3052   1      17.766152364273207      18.751970227670753      2.5716987740805597
  3053   2      18.244774080560418      18.266204903677757      2.1930875656742557
  3054   1      18.594810858143607       18.68053415061296      1.6215989492119089
  3055   1      18.809119089316987      18.044753064798599      2.7002837127845885
  3056   2       17.70900350262697      17.408971978984237      1.8073327495621716
  3057   1      17.351823117338004      17.016073555166376      2.3859649737302977
  3058   1      17.137514886164624      17.644711033274955      1.3001366024518386
  3059   3      18.359071803852885      16.816052539404549      1.3287110332749559
  3060   1      18.016178633975478      16.294569176882664      1.0858283712784589
  3061   1      6.2506567425569166     0.11429772329246936      2.0359281961471103
  3062   2       6.822145359019264     0.36432399299474605      2.5074063047285464
  3063   1      7.3079106830122571      40.539973730297724      2.6288476357267951
  3064   1      7.2364746059544647     0.90723817863397549      2.1073642732049036
  3065   2      6.4292469352014008     0.76436602451838875      3.4289316987740799
  3066   1      5.9434816112084068      1.3644290718038528      3.2860595446584937
  3067   1      6.0149176882661992      0.2071646234676007      3.8146865148861639
  3068   3      7.2079001751313481      1.0643975481611205      4.0004203152364282
  3069   1      6.9435866900175123      1.3072802101576182      4.5719089316987747
  3070   1       12.13698949211909      38.368316987740812      26.045593695271453
  3071   2      12.308436077057792      38.189726795096313      26.788528896672506
  3072   1      12.308436077057792      37.403929947460597      26.852821366024514
  3073   1      13.051371278458843      38.432609457092816      26.924257443082311
  3074   2      11.608362521891419      38.654061295971971      27.467171628721541
  3075   1      11.615506129597195      39.439858143607708      27.381448336252188
  3076   1      10.872570928196147      38.411178633975481      27.317155866900173
  3077   3       11.87267600700525      38.404035026269703      28.410127845884407
  3078   1      11.422628721541153      38.696922942206655      28.817313485113832
  3079   1      37.975418563922943      12.479882661996498      15.987394045534151
  3080   2       37.48965323992995      12.879924693520142      15.530203152364273
  3081   1       37.76111033274956       13.61571628721541      15.480197898423818
  3082   1      37.532514886164613      12.572749562171628      14.808698774080561
  3083   2      36.475260945709287      12.844206654991241      15.915957968476356
  3084   1      36.225234676006998      12.101271453590192      15.965963222416811
  3085   1      36.446686514886167      13.151381786339755      16.644605954465849
  3086   3      35.889485113835377      13.372833625218917      15.294464098073554
  3087   1      35.260847635726797      13.351402802101576      15.551633975481609
  3088   1      30.953252189141857      38.761215411558666    0.092866900175134895
  3089   2      30.653220665499123      38.053998248686511      40.732851138353766
  3090   1      31.174704028021011      37.518227670753063      0.2000210157618304
  3091   1      30.010295971978984      37.968274956217165     0.37861120840630491
  3092   2      30.438912434325744      37.939700525394045      39.675597197898419
  3093   1      29.931716287215412       38.48975831873905      39.439858143607708
  3094   1      31.103267950963218      38.032567425569169      39.246980735551659
  3095   3      30.067444833625217      37.018175131348514      39.532725043782825
  3096   1       29.93885989492119       36.96102626970228      38.868369527145354
  3097   1      13.379977232924693      3.0788949211908929      40.497112084063048
  3098   2      14.122912434325745      2.9003047285464096      40.647127845884413
  3099   1      14.294359019264448      2.2359492119089315      40.247085814360773
  3100   1      14.580103327495621      3.4717933450087561      40.347096322241683
  3101   2       14.28721541155867      2.7788633975481614     0.92152539404553413
  3102   1      14.101481611208404      3.4432189141856395      1.3072802101576182
  3103   1      13.822880910683013      2.2073747810858144      1.2072697022767076
  3104   3      15.251602451838876      2.5359807355516635      1.0715411558668999
  3105   1      15.337325744308229      2.4645446584938697      1.7358966725043781
  3106   1      28.617292469352012      20.009245183887916      22.923837127845886
  3107   2      29.260217162872156      19.752075306479863      22.559513134851137
  3108   1      29.831705779334502       20.28070227670753      22.695241681260946
  3109   1       29.48166900175131        19.0805761821366      22.909549912434322
  3110   2      29.074483362521889      19.609203152364277      21.502259194395794
  3111   1      28.495851138353768      19.094863397548156      21.387961471103328
  3112   1      28.853031523642731      20.294989492119093      21.166509632224166
  3113   3      29.931716287215412      19.287740805604205      21.080786339754816
  3114   1      29.803131348511382       19.20916112084063      20.423574430823116
  3115   1      34.303604203152361      37.482509632224165       25.10263747810858
  3116   2      33.682110332749559      37.218196147110334      24.702595446584933
  3117   1      33.882131348511386      37.211052539404548      23.938229422066549
  3118   1      33.574956217162871      36.460973730297717      24.909760070052538
  3119   2      32.803446584938698      37.818259194395793      24.895472854640982
  3120   1      32.631999999999998      37.818259194395793      25.666982486865145
  3121   1      32.932031523642735      38.568338003502625       24.68830823117338
  3122   3      32.046224168126095      37.439647985989488       24.35970227670753
  3123   1      31.503309982486861      37.818259194395793      24.488287215411557
  3124   1      38.261162872154117      31.038975481611203      37.453935201401059
  3125   2       37.60395096322241      31.131842381786335      37.039605954465848
  3126   1      37.061036777583183      30.667507880910684      37.368211908931698
  3127   1       37.36106830122592      31.874777583187388      37.146760070052537
  3128   2      37.768253940455338      30.910390542907177      35.996639229422058
  3129   1      38.325455341506135      31.374725043782835      35.696607705779336
  3130   1       38.01828021015762      30.160311733800352      35.910915936952712
  3131   3      36.896733800350262      31.031831873905432      35.510873905429065
  3132   1      37.011031523642735      30.888959719789838      34.860805604203151
  3133   1      9.8367478108581423      34.525056042031522       19.33774605954466
  3134   2      9.9653327495621689      35.125119089316989      18.859124343257445
  3135   1      9.4438493870402791      35.689464098073557      19.037714535901927
  3136   1      10.679693520140106      35.410863397548155      19.030570928196148
  3137   2      9.9010402802101556      34.810800350262703       17.82330122591944
  3138   1      10.422523642732047      34.239311733800349      17.673285464098075
  3139   1      9.1795359019264424      34.517912434325744      17.666141856392294
  3140   3      10.072486865148862       35.61802802101576      17.244669001751316
  3141   1      10.029625218914186      35.410863397548155       16.60888791593695
  3142   1      36.675281961471107      23.516756567425571      27.245719789842383
  3143   2      36.089506129597197      23.338166374781085      26.752810858143608
  3144   1      35.525161120840629      23.873936952714537      26.859964973730289
  3145   1      36.368106830122592      23.431033274956214      26.024162872154111
  3146   2      35.739469352014005      22.330917688266197      26.924257443082311
  3147   1      36.318101576182137      21.809434325744309      26.824246935201398
  3148   1      35.468012259194396      22.252338003502626      27.667192644483361
  3149   3      34.989390542907181      22.152327495621712      26.274189141856393
  3150   1      34.775082311733804      21.523690017513136       26.38848686514886
  3151   1      20.044963222416815      21.209371278458843      7.4936444833625195
  3152   2       20.28070227670753      21.087929947460594       6.757852889667249
  3153   1      20.230697022767075      20.316420315236424      6.6221243432574424
  3154   1      19.752075306479863      21.437966725043783      6.2863747810858142
  3155   2      21.273663747810858      21.473684763572678      6.6006935201401049
  3156   1      21.309381786339756      22.245194395796844      6.7507092819614698
  3157   1      21.795147110332746      21.116504378283711      7.0864588441330989
  3158   3      21.530833625218911      21.287950963222418      5.6434500875656735
  3159   1      22.159471103327494      21.523690017513136      5.5577267950963227
  3160   1      13.365690017513135      11.094022767075305      28.760164623467599
  3161   2      14.087194395796844        11.3726234676007      28.845887915936952
  3162   1      14.444374781085815      11.322618213660244      28.145814360770572
  3163   1      14.030045534150611      12.144133099824867      29.010190893169874
  3164   2      14.622964973730298      10.836852889667249      29.617397548161122
  3165   1      14.244353765323993      10.894001751313484      30.310327495621721
  3166   1      14.665826619964973      10.065343257443081      29.438807355516644
  3167   3      15.544490367775833      11.222607705779332      29.688833625218908
  3168   1      15.865952714535901      10.879714535901924      30.167455341506127
  3169   1      7.4722136602451847      39.489863397548156      12.444164623467602
  3170   2       6.757852889667249      39.346991243432569      12.158420315236425
  3171   1      6.3506672504378283      38.982667250437821      12.729908931698775
  3172   1      6.4078161120840624      40.039921190893175      12.022691768826622
  3173   2       6.815001751313484       38.74692819614711       11.25832574430823
  3174   1      7.2436182136602447      39.118395796847629      10.708267950963224
  3175   1      7.1793257443082306      38.053998248686511      11.408341506129597
  3176   3      5.8791891418563926      38.582625218914174       10.92971978984238
  3177   1      5.9291943957968458      38.204014010507876      10.372518388791592
  3178   1      29.281647985989494      27.088560420315236       31.72476182136602
  3179   2        29.5531050788091      27.552894921190894       32.29625043782837
  3180   1      30.053157618213657      28.067234676007004       31.96764448336252
  3181   1      28.938754816112088      27.974367775831873      32.567707530647986
  3182   2      30.017439579684758      26.974262697022763      33.082047285464093
  3183   1      29.503099824868649      26.459922942206656      33.389222416812608
  3184   1      30.624646234676007      26.552789842381785      32.789159369527148
  3185   3      30.353189141856387      27.610043782837128      33.782120840630469
  3186   1      30.638933450087567      27.238576182136601      34.260742556917691
  3187   1      2.8360122591943959      8.1937180385288979      13.065658493870401
  3188   2      2.8217250437828367      7.7793887915936955      12.408446584938703
  3189   1      3.4289316987740799      7.2793362521891414      12.429877408056042
  3190   1      2.1645131348511382      7.3364851138353764      12.422733800350262
  3191   2      2.8431558669001751      8.4223134851138362      11.536926444833624
  3192   1      2.2359492119089315      8.9152224168126093      11.536926444833624
  3193   1      3.5075113835376528      8.8652171628721543      11.544070052539405
  3194   3      2.8288686514886163      7.8365376532399296         10.715411558669
  3195   1      2.8502994746059547      8.2508669001751311      10.186784588441331
  3196   1      13.765732049036776      21.980880910683013      34.617922942206654
  3197   2      14.180061295971978      22.480933450087562      35.046539404553407
  3198   1      14.937283712784589      22.416640980735547      34.825087565674252
  3199   1       13.95146584938704      23.209581436077055      34.846518388791594
  3200   2      14.051476357267951      22.295199649737302      36.103793345008754
  3201   1      13.287110332749563      22.352348511383536      36.303814360770581
  3202   1       14.28007180385289      21.559408056042027      36.282383537653239
  3203   3      14.601534150612959      22.966698774080555      36.610989492119089
  3204   1      14.508667250437828      22.830970227670754      37.268201401050781
  3205   1      7.4150647985989488      30.846098073555162       28.15295796847635
  3206   2      6.8078581436077048      30.460343257443082      28.460133099824869
  3207   1      6.8721506129597181      29.703120840630472      28.238681260945711
  3208   1       6.886437828371279       30.46748686514886      29.245929947460596
  3209   2      5.8720455341506117      30.896103327495624       28.15295796847635
  3210   1      5.8291838879159368      31.653325744308233      28.374409807355516
  3211   1      5.8006094570928193      30.881816112084064      27.360017513134846
  3212   3      5.1219667250437828      30.367476357267954      28.567287215411561
  3213   1      4.5433345008756572      30.646077057793342      28.367266199649738
  3214   1        29.5531050788091      22.116609457092817        23.7453520140105
  3215   2      29.045908931698772      21.973737302977234      24.323984238178632
  3216   1      28.460133099824869      22.495220665499126      24.252548161120838
  3217   1      28.738733800350257      21.259376532399294      24.195399299474605
  3218   2      29.531674255691769      22.030886164623467      25.288371278458843
  3219   1       30.12459369527145      21.509402802101576      25.331232924693516
  3220   1      29.845992994746062      22.752390542907179      25.395525394045539
  3221   3      28.845887915936952      21.845152364273204      25.995588441330995
  3222   1      29.160206654991242      21.888014010507877      26.588507880910683
  3223   1      37.061036777583183      39.625591943957971      30.860385288966729
  3224   2      36.811010507880908      40.011346760070055      30.231747810858142
  3225   1      37.132472854640987      39.661309982486863       29.59596672504378
  3226   1      36.032357267950957      39.911336252189137      30.174598949211912
  3227   2      37.068180385288969     0.27145709281961838      30.296040280210157
  3228   1      36.746718038528897     0.60006304728546844      30.931821366024511
  3229   1      37.853977232924699     0.36432399299475093      30.353189141856387
  3230   3      36.739574430823119     0.72864798598949942      29.460238178633968
  3231   1      36.911021015761825      1.3787162872154088       29.51024343257443
  3232   1      21.859439579684761      11.215464098073555      40.032777583187382
  3233   2      21.580838879159369      10.779704028021014      39.447001751313479
  3234   1      21.716567425569178       11.17260245183888       38.77550262697023
  3235   1      21.995168126094569      10.115348511383537      39.418427320490366
  3236   2       20.52358493870403      10.579683012259196      39.589873905429073
  3237   1      20.402143607705778      10.201071803852889      40.268516637478108
  3238   1      20.116399299474605       11.25832574430823      39.625591943957971
  3239   3      20.202122591943958      10.029625218914186      38.818364273204907
  3240   1      19.544910683012258      9.9153274956217157      38.918374781085816
  3241   1      24.402563922942203      8.2365796847635728      17.194663747810853
  3242   2      24.266835376532399      7.5365061295971962      16.873201401050789
  3243   1      24.888329246935204      7.0793152364273197      17.051791593695274
  3244   1      23.645341506129597      7.2293309982486864      17.237525394045534
  3245   2      24.109676007005255      7.6150858143607705      15.808803852889669
  3246   1      23.495325744308229      8.0865639229422062      15.651644483362519
  3247   1      24.745457092819613      7.9365481611208404      15.451623467600697
  3248   3      23.945373029772323      6.6935604203152375      15.444479859894919
  3249   1      23.852506129597199       6.757852889667249      14.780124343257439
  3250   1      14.780124343257439       34.75365148861647      11.108309982486862
  3251   2      14.565816112084061      34.010716287215409      11.008299474605955
  3252   1      13.794306479859896      33.960711033274947       11.15117162872154
  3253   1      14.665826619964973      33.839269702276702      10.243933450087566
  3254   2      15.144448336252189      33.346360770577931      11.636936952714535
  3255   1      15.908814360770577      33.417796847635728      11.486921190893172
  3256   1      15.037294220665499      33.532094570928194      12.401302977232925
  3257   3      14.830129597197898      32.403404553415058      11.472633975481612
  3258   1      15.194453590192643      32.003362521891425       11.87267600700525
  3259   1      34.517912434325744      7.3364851138353764      33.717828371278458
  3260   2      33.789264448336255      7.5007880910683014      33.953567425569176
  3261   1      33.403509632224171      7.8008196147110347      33.332073555166374
  3262   1       33.43922767075307       6.822145359019264      34.139301225919439
  3263   2      33.803551663747804       8.179430823117336      34.796513134851146
  3264   1      34.203593695271451       7.872255691768828      35.396576182136599
  3265   1      34.167875656742552      8.8580735551663743      34.596492119089319
  3266   3      32.853451838879153      8.3723082311733794      35.060826619964978
  3267   1      32.874882661996502       8.793781085814361      35.582309982486862
  3268   1      28.338691768826621      15.744511383537656      18.423364273204907
  3269   2      27.631474605954462      15.844521891418564      18.730539404553415
  3270   1      27.445740805604203       16.60888791593695       18.63767250437828
  3271   1      27.124278458844131      15.437336252189139      18.294779334500877
  3272   2      27.602900175131346      15.544490367775833      19.766362521891413
  3273   1      27.802921190893169      14.780124343257439       19.83779859894921
  3274   1      28.124383537653237      15.965963222416811       20.19497898423818
  3275   3      26.667087565674255      15.694506129597197      20.116399299474605
  3276   1      26.667087565674255      15.508772329246934      20.759323992994748
  3277   1      3.3003467600700525      14.958714535901922      9.7581681260945707
  3278   2      2.7074273204903672      15.458767075306479       9.872465849387039
  3279   1      2.2716672504378286      15.458767075306479      9.2152539404553409
  3280   1      2.2573800350262698      15.158735551663746      10.443954465849387
  3281   2      3.0788949211908929      16.437441330998251      10.129635726795094
  3282   1      3.5146549912434319      16.408866900175134      10.779704028021014
  3283   1      3.5360858143607703      16.723185639229424      9.5438598949211908
  3284   3      2.2859544658493873      17.044647985989492      10.265364273204904
  3285   1      2.5288371278458843      17.651854640980737      10.415380035026271
  3286   1      39.775607705779329      16.323143607705781      34.139301225919439
  3287   2      40.397101576182131      15.965963222416811      33.824982486865153
  3288   1      40.425676007005251      16.187415061295972      33.060616462346758
  3289   1     0.25002626970228292      16.258851138353766      34.167875656742552
  3290   2      40.332809106830119      14.894422066549911      33.939280210157619
  3291   1       40.28994746059545      14.701544658493868      34.703646234676008
  3292   1      39.668453590192648      14.615821366024514      33.596387040280213
  3293   3     0.35003677758318791      14.480092819614713      33.510663747810852
  3294   1     0.29288791593696289      13.815737302977231      33.589243432574428
  3295   1      20.023532399299476      22.152327495621712      12.965647985989492
  3296   2      20.516441330998244      21.552264448336253        12.8942119089317
  3297   1      20.923626970227669      21.666562171628719       12.22271278458844
  3298   1      21.037924693520136      21.595126094570926      13.487131348511381
  3299   2      19.987814360770578      20.609308231173376        12.8942119089317
  3300   1      19.580628721541157       20.52358493870403      13.565711033274958
  3301   1      19.466330998248687      20.587877408056041      12.294148861646235
  3302   3      20.659313485113834       19.86637302977233      12.787057793345008
  3303   1      20.316420315236424      19.294884413309983      12.787057793345008
  3304   1      3.6789579684763569      35.325140105078809      27.652905429071804
  3305   2       3.164618213660245      35.067970227670749      28.174388791593689
  3306   1      2.4502574430823119      35.117975481611204       27.84578283712785
  3307   1      3.3074903677758321      34.303604203152361      28.295830122591944
  3308   2      3.2289106830122591      35.639458844133102      29.095914185639234
  3309   1      3.9504150612959719      35.582309982486862      29.403089316987735
  3310   1      3.0860385288966725       36.40382486865149      28.960185639229426
  3311   3      2.5431243432574426      35.275134851138354      29.738838879159371
  3312   1      2.5859859894921193      35.639458844133102      30.303183887915939
  3313   1      30.510348511383533      30.553210157618214      7.4007775831873897
  3314   2      30.888959719789838      30.117450087565672      7.9294045534150621
  3315   1      30.488917688266199      29.445950963222415      8.0151278458844146
  3316   1      31.589033274956218       29.92457267950963      7.6222294220665496
  3317   2      30.996113835376534      30.646077057793342      8.8652171628721543
  3318   1       31.39615586690017      31.324719789842373      8.7580630472854644
  3319   1      30.281753064798597      30.838954465849383      9.1581050788091076
  3320   3      31.481879159369527      30.053157618213657      9.5081418563922924
  3321   1       31.53902802101576      30.396050788091067      10.086774080560421
  3322   1      15.601639229422069      1.4572959719789842      38.768359019264444
  3323   2      15.780229422066547     0.71436077057793346      38.604056042031523
  3324   1      16.480302977232924     0.57148861646234683      38.932661996497373
  3325   1      15.258746059544656     0.25716987740805602      38.968380035026271
  3326   2      15.787373029772329     0.54291418563922944      37.539658493870398
  3327   1      15.080155866900176     0.70007355516637482      37.225339754816112
  3328   1      16.315999999999999      1.0143922942206653      37.182478108581435
  3329   3      16.030255691768829      40.368527145359025       37.37535551663747
  3330   1      16.030255691768829      40.275660245183886      36.710999999999999
  3331   1      38.854082311733798     0.45004728546409284     0.76436602451838875
  3332   2      38.604056042031523      40.518542907180375     0.95009982486865152
  3333   1      38.625486865148865      40.461394045534149      1.7358966725043781
  3334   1      37.853977232924699      40.461394045534149     0.73579159369527147
  3335   2      39.211262697022768      39.768464098073558     0.47147810858143613
  3336   1      39.189831873905426      39.847043782837126      40.482824868651491
  3337   1      39.975628721541156      39.839900175131348     0.69292994746059544
  3338   3      38.861225919439576      38.861225919439576     0.74293520140105085
  3339   1      39.254124343257445      38.404035026269703     0.44290367775831868
  3340   1      5.8363274956217159     0.85008931698774071      23.366740805604202
  3341   2      5.1005359019264445     0.87152014010507872      23.095283712784589
  3342   1      4.6290577933450088     0.60006304728546411      23.666772329246935
  3343   1      4.9148021015761811      1.6287425569176883      22.995273204903672
  3344   2      5.0076690017513137     0.30717513134851132      22.180901926444836
  3345   1      5.4934343257443086     0.58577583187390547      21.630844133099821
  3346   1      5.2005464098073544      40.339952714535904      22.302343257443081
  3347   3      4.0504255691768822     0.36432399299474605      21.873726795096321
  3348   1      4.0075639229422073   0.0071436077057793349      21.309381786339756
  3349   1      3.8575481611208411      3.8146865148861639      5.8148966725043767
  3350   2      4.0718563922942206      4.2147285464098072      6.4506777583187391
  3351   1      4.1361488616462339      4.9719509632224161      6.2363695271453583
  3352   1      3.4717933450087561      4.1718669001751305      6.9650175131348506
  3353   2      4.9862381786339753      3.8218301225919444      6.8721506129597181
  3354   1      4.9005148861646237      3.0646077057793342      7.0650280210157614
  3355   1      5.5720140105078801      3.8646917688266198        6.33638003502627
  3356   3      5.2148336252189145       4.371887915936953      7.6793782837127837
  3357   1      5.7934658493870401      4.1218616462346747      7.9294045534150621
  3358   1       32.22481436077058       2.950309982486865      25.581259194395798
  3359   2       31.73904903677758       2.757432574430823      25.002626970227666
  3360   1      31.531884413309978      2.0073537653239932      25.109781085814358
  3361   1      31.081837127845883      3.1860490367775833      25.095493870402795
  3362   2      32.189096322241681      2.9288791593695267      24.038239929947462
  3363   1      32.396260945709287      3.6861015761821365      23.959660245183883
  3364   1      32.853451838879153      2.5002626970227668      23.966803852889665
  3365   3      31.531884413309978      2.6717092819614709        23.3310227670753
  3366   1      31.831915936952711      2.7788633975481614      22.730959719789844
  3367   1      15.615926444833622      27.688623467600696       25.08835026269702
  3368   2      15.351612959719791       28.38155341506129      25.331232924693516
  3369   1      15.430192644483364      28.395840630472854       26.11702977232925
  3370   1      15.830234676007008      28.938754816112088      25.045488616462343
  3371   2      14.330077057793345      28.545856392294219      25.024057793345008
  3372   1       14.27292819614711      28.517281961471102      24.238260945709282
  3373   1      13.858598949211906      27.974367775831873      25.309802101576182
  3374   3      14.037189141856395      29.445950963222415      25.366950963222422
  3375   1      13.394264448336253      29.524530647985983      25.166929947460599
  3376   1      30.567497373029774      24.666877408056042      38.554050788091068
  3377   2      31.339007005253936       24.54543607705779       38.48975831873905
  3378   1      31.696187390542907      25.238366024518385      38.632630472854643
  3379   1      31.553315236427323      24.059670753064797      39.068390542907181
  3380   2      31.589033274956218      24.152537653239925      37.518227670753063
  3381   1      31.217565674255692      23.466751313485112       37.38964273204904
  3382   1      31.360437828371278      24.652590192644482      36.939595446584939
  3383   3      32.589138353765328      24.016809106830127      37.475366024518394
  3384   1      32.724866900175137      23.773926444833627      36.868159369527149
  3385   1      40.611409807355521      13.144238178633975      27.781490367775831
  3386   2     0.14287215411558671      12.694190893169877      28.331548161120843
  3387   1      40.389957968476359      12.587036777583187      28.888749562171629
  3388   1     0.28574430823117342      11.986973730297724      28.010085814360771
  3389   2      1.0501103327495622      13.144238178633975      28.724446584938704
  3390   1      1.5715936952714535      13.251392294220667      28.145814360770572
  3391   1     0.88580735551663736      13.858598949211906      29.038765323992994
  3392   3      1.4215779334500875      12.529887915936952      29.431663747810855
  3393   1       1.978779334500876      12.829919439579683      29.667402802101574
  3394   1      17.451833625218914      31.760479859894915       31.73904903677758
  3395   2      17.573274956217166       32.45340980735552      31.410443082311733
  3396   1       17.70900350262697      32.974893169877397      31.989075306479858
  3397   1      18.244774080560418      32.403404553415058      30.988970227670755
  3398   2      16.737472854640977      32.746297723292464      30.788949211908928
  3399   1      16.616031523642732      32.217670753064795      30.217460595446589
  3400   1      16.073117338003502      32.789159369527148      31.217565674255692
  3401   3      16.944637478108582      33.646392294220668      30.388907180385285
  3402   1      16.416010507880912      33.817838879159375      30.010295971978984
  3403   1      23.709633975481609      22.430928196147111      39.218406304728553
  3404   2      23.852506129597199      22.116609457092817      38.525476357267948
  3405   1      24.152537653239925      22.680954465849386      38.061141856392297
  3406   1      24.423994746059542      21.580838879159369      38.618343257443073
  3407   2      22.959555166374781      21.673705779334497      38.104003502626966
  3408   1      22.680954465849386      21.116504378283711      38.582625218914174
  3409   1      22.395210157618212      22.216619964973724      38.025423817863398
  3410   3      23.195294220665499      21.280807355516636      37.211052539404548
  3411   1      22.623805604203152      21.009350262697019       36.96102626970228
  3412   1      2.8502994746059547      32.510558669001753      24.574010507880907
  3413   2      3.2217670753064795      32.974893169877397      25.081206654991242
  3414   1      3.6503835376532399      32.517702276707531      25.552684763572678
  3415   1      3.7289632224168128      33.424940455341513      24.674021015761816
  3416   2      2.5145499124343256      33.582099824868649       25.63126444833625
  3417   1      2.0859334500875653      34.025003502626966      25.145499124343257
  3418   1      2.0073537653239932      33.124908931698769      26.031306479859893
  3419   3       3.028889667250438      34.160732049036781      26.274189141856393
  3420   1      2.5788423817863397      34.525056042031522      26.609938704028018
  3421   1      30.131737302977232      36.125224168126103      24.909760070052538
  3422   2      30.760374781085815      36.160942206654994      24.438281961471105
  3423   1      31.188991243432572      36.782436077057795      24.674021015761816
  3424   1      31.196134851138357      35.518017513134858      24.581154115586685
  3425   2       30.46748686514886      36.225234676006998      23.402458844133097
  3426   1      30.031726795096322      35.603740805604204      23.195294220665499
  3427   1       30.02458318739054      36.868159369527149      23.281017513134849
  3428   3      31.303288966725038       36.27523992994746      22.845257443082307
  3429   1         31.110411558669      36.318101576182137      22.202332749562174
  3430   1      25.709844133099825      8.3508774080560428      6.3435236427320492
  3431   2      25.802711033274957      7.8436812609457087      6.9292994746059531
  3432   1       25.20264798598949      7.3293415061295972      6.9007250437828365
  3433   1      26.459922942206656       7.429352014010508      6.7864273204903673
  3434   2       25.85985989492119      8.3508774080560428      7.8865429071803854
  3435   1      26.452779334500875      8.8652171628721543      7.8936865148861646
  3436   1      25.188360770577933      8.7652066549912444      8.0151278458844146
  3437   3       25.97415761821366      7.6579474605954472      8.6080472854640995
  3438   1      26.002732049036776      7.9865534150612971      9.1938231173380025
  3439   1      3.8932661996497369      21.116504378283711      40.732851138353766
  3440   2      4.2575901926444821      21.802290718038527      40.739994746059544
  3441   1      4.9790945709281962      21.687992994746061     0.23573905429071806
  3442   1      4.3433134851138355      22.030886164623467      39.989915936952713
  3443   2      3.7003887915936948      22.530938704028021     0.52148336252189131
  3444   1      2.9788844133099821      22.630949211908931     0.22859544658493872
  3445   1      3.6218091068301224      22.288056042031521      1.2715621716287213
  3446   3      4.2147285464098072      23.402458844133097     0.50005253940455352
  3447   1      3.8575481611208411       23.84536252189142     0.86437653239929935
  3448   1      14.151486865148863       28.71015936952714     0.25716987740806441
  3449   2      13.922891418563925      28.831600700525392      40.311378283712784
  3450   1      14.237210157618211      28.267255691768828      39.868474605954468
  3451   1      13.137094570928197      28.738733800350257      40.282803852889671
  3452   2      14.208635726795094      29.824562171628717      39.975628721541156
  3453   1      13.894316987740803      30.374619964973725      40.439963222416814
  3454   1      14.994432574430824      29.910285464098077      40.018490367775833
  3455   3      13.894316987740803       29.93885989492119      39.025528896672505
  3456   1      14.087194395796844      30.553210157618214      38.832651488616463
  3457   1      1.2215569176882661      1.8716252189141858      26.324194395796845
  3458   2     0.60720665499124338        1.39300350262697      26.431348511383536
  3459   1     0.88580735551663736     0.72150437828371283       26.73138003502627
  3460   1     0.15001576182136603      1.7216094570928198      26.988549912434326
  3461   2    0.064292469352014006       1.242987740805604      25.509823117338005
  3462   1      40.597122591943958      1.9287740805604205      25.224078809106832
  3463   1     0.53577057793344995     0.92152539404553413      24.959765323992997
  3464   3      40.082782837127844     0.62863747810858139      25.702700525394043
  3465   1      39.754176882661994     0.53577057793344995      25.116924693520136
  3466   1      6.3649544658493875      7.0293099824868639      6.0363485113835376
  3467   2      6.5364010507880916      6.2935183887915933      5.8363274956217159
  3468   1      7.0078791593695264      6.3220928196147108      5.2076900175131353
  3469   1      6.9578739054290715      5.9863432574430808      6.4292469352014008
  3470   2      5.6363064798598943      5.7220297723292468      5.6505936952714535
  3471   1      5.1719719789842387      5.7148861646234677      6.2935183887915933
  3472   1      5.2148336252189145      6.0506357267950959      5.0648178633975469
  3473   3      5.9077635726795084      4.7862171628721546      5.4005674255691769
  3474   1      5.3362749562171627      4.4433239929947455      5.2862697022767078
  3475   1      20.037819614711033      1.1215464098073555      25.409812609457092
  3476   2      19.573485113835378      1.4644395796847633      25.931295971978983
  3477   1       18.85198073555166       1.150120840630473      25.852716287215415
  3478   1      19.830654991243431      1.2572749562171628      26.645656742556913
  3479   2      19.566341506129596      2.5359807355516635      25.802711033274957
  3480   1      20.294989492119093      2.8288686514886163      25.881290718038532
  3481   1      19.309171628721536      2.7288581436077055       25.07406304728546
  3482   3      18.951991243432577      2.9360227670753059      26.495640980735555
  3483   1      18.951991243432577       3.600378283712784       26.40277408056042
  3484   1      32.910600700525393      1.3787162872154115       4.307595446584938
  3485   2      33.260637478108578      2.0287845884413307      4.5647653239929955
  3486   1      33.889274956217164       1.800189141856392      4.9862381786339753
  3487   1      33.532094570928194      2.4145394045534152       3.936127845884414
  3488   2      32.581994746059543      2.6359912434325743      5.1505411558669003
  3489   1      31.953357267950956      2.8431558669001751      4.7219246935201395
  3490   1      32.317681260945712      2.2288056042031523      5.7791786339754818
  3491   3      33.082047285464093      3.4503625218914182      5.4648598949211902
  3492   1      32.653430823117333      3.8146865148861639      5.8291838879159368
  3493   1      31.717618213660248      38.782646234676015      35.203698774080564
  3494   2      32.281963222416813      39.096964973730294      34.767938704028026
  3495   1      32.374830122591945      39.847043782837126      34.996534150612959
  3496   1       32.95346234676007      38.725497373029768      34.939385288966726
  3497   2      32.046224168126095      39.018385288966719      33.717828371278458
  3498   1      31.946213660245188      38.261162872154117      33.503520140105081
  3499   1      31.360437828371278      39.389852889667253      33.553525394045536
  3500   3      32.796302977232926      39.432714535901916      33.189201401050788
  3501   1       32.62485639229422      39.382709281961468      32.539133099824866
  3502   1       12.46559544658494      17.487551663747812      28.238681260945711
  3503   2      13.172812609457091       17.48040805604203      27.910075306479861
  3504   1      13.537136602451836       18.15190718038529      28.102952714535903
  3505   1      13.587141856392293      16.894632224168127      28.238681260945711
  3506   2        13.1013765323993      17.344679509632225      26.838534150612961
  3507   1      12.729908931698775      16.673180385288966      26.659943957968476
  3508   1      12.679903677758317      17.937598949211907      26.509928196147108
  3509   3      14.030045534150611      17.344679509632225      26.452779334500875
  3510   1      13.972896672504378       17.26609982486865        25.7884238178634
  3511   1      39.311273204903671      31.196134851138357      33.039185639229423
  3512   2      39.282698774080558      30.417481611208402      32.996323992994746
  3513   1      39.947054290718036      30.138880910683014      33.332073555166374
  3514   1      38.682635726795098      30.174598949211912       33.43922767075307
  3515   2      39.175544658493877      30.088875656742552      31.974788091068302
  3516   1      38.518332749562163      30.381763572679507      31.653325744308233
  3517   1      39.789894921190893      30.346045534150615      31.531884413309978
  3518   3      39.146970227670757      29.081626970227667       31.96764448336252
  3519   1      39.089821366024516      28.888749562171629      31.324719789842373
  3520   1      9.8153169877408057      1.3287110332749559      3.5646602451838878
  3521   2      9.1152434325744291      1.3715726795096321      3.9146970227670757
  3522   1      8.7580630472854644      2.0216409807355515      3.6503835376532399
  3523   1      8.6866269702276711     0.75722241681260949      3.6646707530647986
  3524   2      9.2152539404553409      1.3644290718038528      4.9933817863397545
  3525   1      9.5795779334500875     0.71436077057793346      5.2362644483362519
  3526   1      9.6581576182136608      1.9859229422066551      5.2291208406304728
  3527   3      8.2937285464098078      1.4287215411558669      5.3934238178633978
  3528   1      8.3723082311733794      1.4287215411558669      6.0577793345008759
  3529   1      23.638197898423819      9.5724343257443092      2.0573590192644482
  3530   2      23.573905429071804       8.900935201401051      2.4431138353765323
  3531   1      23.409602451838879      8.3365901926444828      1.9144868651488618
  3532   1      24.288266199649733       8.729488616462346      2.7360017513134847
  3533   2      22.830970227670754      8.9580840630472842      3.2217670753064795
  3534   1      23.009560420315232      9.5295726795096325      3.7361068301225924
  3535   1      22.123753064798596      9.1366742556917657      2.9145919439579684
  3536   3      22.795252189141856      8.0651330998248678      3.6932451838879161
  3537   1      22.323774080560419      8.1222819614711046      4.1718669001751305
  3538   1      7.8222504378283713      10.315369527145359      21.502259194395794
  3539   2      7.5436497373029781      10.086774080560421      22.195189141856392
  3540   1      6.9435866900175123      9.5867215411558675      22.059460595446584
  3541   1      8.1151383537653228      9.6653012259194391      22.545225919439577
  3542   2       7.250761821366023       10.92971978984238      22.795252189141856
  3543   1       7.857968476357267      11.415485113835377      22.916693520140104
  3544   1      6.6792732049036783      11.351192644483364      22.430928196147111
  3545   3      6.9007250437828365      10.586826619964972      23.673915936952714
  3546   1      6.7149912434325723      11.122597197898422      24.038239929947462
  3547   1      25.352663747810858      7.1436077057793348     0.85008931698774071
  3548   2      25.616977232924693      7.8793992994746054     0.82151488616462343
  3549   1      26.109886164623461      7.9794098073555171      1.4215779334500875
  3550   1      26.038450087565675      7.9579789842381778     0.15715936952714535
  3551   2      24.795462346760072      8.5866164623467593     0.85008931698774071
  3552   1      24.302553415061297      8.4723187390542911     0.24288266199649738
  3553   1      24.373989492119083      8.4937495621716295       1.514444833625219
  3554   3      25.181217162872155      9.5152854640980742     0.81437127845884416
  3555   1       24.65973380035026      9.9439019264448323     0.83580210157618229
  3556   1      15.830234676007008      35.596597197898426      14.315789842381786
  3557   2      15.373043782837128      36.232378283712784      14.301502626970223
  3558   1      14.958714535901922      36.210947460595442      13.622859894921191
  3559   1      14.851560420315236      36.160942206654994      14.887278458844133
  3560   2      15.951676007005254      37.132472854640987       14.39436952714536
  3561   1      16.366005253940454      37.132472854640987      15.065868651488616
  3562   1      16.480302977232924      37.189621716287213      13.801450087565673
  3563   3      15.323038528896671       37.91826970227671      14.365795096322241
  3564   1      15.701649737302976      38.475471103327493      14.422943957968476
  3565   1      17.937598949211907      7.6365166374781071      10.172497373029771
  3566   2      18.473369527145355      7.2221873905429073      9.7867425569176891
  3567   1      18.166194395796847       7.036453590192643      9.0866690017513143
  3568   1      19.087719789842382      7.7008091068301239      9.6438704028021025
  3569   2      18.773401050788092      6.3506672504378283      10.351087565674256
  3570   1      19.066288966725043      6.5649754816112083       11.05116112084063
  3571   1      18.144763572679505      5.8863327495621718       10.48681611208406
  3572   3      19.459187390542908      5.8506147110332742      9.8153169877408057
  3573   1      19.637777583187393      5.3077005253940444      10.172497373029771
  3574   1      23.959660245183883      29.767413309982484      29.967434325744307
  3575   2       24.11681961471103      29.374514886164622      29.303078809106829
  3576   1      24.695451838879158      28.867318739054294      29.460238178633968
  3577   1      23.481038528896672      28.945898423817859      29.131632224168122
  3578   2      24.366845884413308      30.053157618213657      28.502994746059549
  3579   1      23.773926444833627      30.560353765323988      28.367266199649738
  3580   1      25.002626970227666      30.488917688266199      28.688728546409806
  3581   3      24.559723292469354       29.51024343257443      27.674336252189143
  3582   1      24.716882661996497      29.946003502626972       27.18857092819615
  3583   1      3.1360437828371275      12.101271453590192      27.831495621716286
  3584   2      3.8861225919439581       12.12984588441331      28.052947460595444
  3585   1      4.0147075306479865      12.851350262697022      28.352978984238174
  3586   1      3.9718458844133102      11.615506129597195      28.645866900175125
  3587   2      4.5433345008756572      11.901250437828372      27.231432574430819
  3588   1      4.3861751313485113      11.186889667250439      26.938544658493868
  3589   1      4.4361803852889672      12.422733800350262      26.638513134851134
  3590   3      5.4934343257443086      11.951255691768827      27.560038528896669
  3591   1      5.8863327495621718      11.815527145359017      27.038555166374778
  3592   1      28.110096322241681     0.11429772329246936      34.117870402802097
  3593   2      27.667192644483361     0.58577583187390547      34.553630472854643
  3594   1      27.824352014010511      1.3287110332749559      34.332178633975481
  3595   1      26.917113835376533       0.450047285464098      34.367896672504379
  3596   2      27.852926444833628     0.42861646234675999      35.603740805604204
  3597   1      27.695767075306474      40.468537653239927      35.803761821366017
  3598   1      28.617292469352012     0.56434500875656746      35.782330998248689
  3599   3      27.267150612959718      1.0572539404553416      36.132367775831867
  3600   1      27.395735551663744     0.95009982486865152      36.782436077057795
  3601   1      15.558777583187391      21.973737302977234      24.252548161120838
  3602   2      16.137409807355517      21.480828371278459       24.07395796847636
  3603   1      16.701754816112086      21.895157618213659      23.716777583187383
  3604   1      16.444584938704025      21.223658493870403      24.752600700525392
  3605   2      15.787373029772329      20.659313485113834      23.466751313485112
  3606   1      15.215884413309981      20.259271453590188      23.831075306479857
  3607   1      15.473054290718038      20.937914185639233      22.780964973730295
  3608   3      16.566026269702274      20.059250437828371      23.259586690017507
  3609   1      16.330287215411559      19.559197898423815      22.880975481611205
  3610   1      39.925623467600701      33.696397548161116      8.2080052539404562
  3611   2      39.882761821366024      33.832126094570931      8.9723712784588443
  3612   1      39.711315236427318      33.139196147110333      9.3224080560420308
  3613   1      40.597122591943958      34.039290718038529      9.2152539404553409
  3614   2      39.146970227670757      34.589348511383534      9.1938231173380025
  3615   1      39.325560420315234      35.267991243432576      8.8294991243432577
  3616   1      38.432609457092816      34.367896672504379      8.9366532399299459
  3617   3      39.125539404553415      34.725077057793342      10.193928196147111
  3618   1      38.661204903677756      35.196555166374779      10.315369527145359
  3619   1      6.2220823117338009      15.687362521891417      32.231957968476358
  3620   2      6.7935709281961465      15.751654991243431      31.710474605954467
  3621   1      7.4150647985989488      16.073117338003502      32.074798598949215
  3622   1      7.0078791593695264      15.030150612959718      31.489022767075312
  3623   2      6.4792521891418566      16.344574430823116      30.860385288966729
  3624   1      5.8506147110332742      16.015968476357269      30.510348511383533
  3625   1      6.2578003502626958      17.073222416812612      31.096124343257443
  3626   3       7.250761821366023      16.408866900175134      30.217460595446589
  3627   1       7.036453590192643      16.780334500875657       29.69597723292469
  3628   1      18.687677758318735      7.7365271453590188      22.388066549912434
  3629   2       18.79483187390543      7.9079737302977229      21.630844133099821
  3630   1      18.416220665499122      7.3650595446584921      21.209371278458843
  3631   1      18.430507880910682      8.5937600700525394      21.487971978984238
  3632   2      19.844942206654991       7.965122591943957      21.387961471103328
  3633   1       20.20926619964974      8.5080367775831878      21.830865148861644
  3634   1      20.202122591943958      7.2650490367775813      21.545120840630474
  3635   3      19.937809106830123      8.1865744308231161       20.40928721541156
  3636   1      20.595021015761819      8.2080052539404562      20.273558669001755
  3637   1      39.854187390542904      23.066709281961472      39.046959719789847
  3638   2      40.011346760070055      22.895262697022766      38.304024518388793
  3639   1      39.611304728546415      23.402458844133097      37.853977232924699
  3640   1      40.775712784588443      23.023847635726792      38.182583187390541
  3641   2      39.747033274956216      21.866583187390543       38.08971628721541
  3642   1      40.147075306479863      21.373674255691768      38.554050788091068
  3643   1       38.97552364273205      21.745141856392294       38.21830122591944
  3644   3        39.9613415061296      21.687992994746061      37.118185639229416
  3645   1      39.789894921190893      21.045068301225918       37.00388791593695
  3646   1      22.916693520140104      10.686837127845884      8.6580525394045527
  3647   2      22.138040280210159      10.658262697022767      8.7080577933450094
  3648   1      21.895157618213659       11.35833625218914      9.0009457092819609
  3649   1      21.852295971978986      10.608257443082312      7.9794098073555171
  3650   2      21.816577933450088      9.8296042031523623      9.3224080560420308
  3651   1      22.073747810858144      9.1509614711033258      9.0223765323992993
  3652   1      22.116609457092817      9.8938966725043773      10.058199649737302
  3653   3      20.809329246935196      9.8367478108581423      9.3581260945709293
  3654   1       20.62359544658494      9.3224080560420308      9.7510245183887925
  3655   1      14.194348511383536      14.787267950963223      33.932136602451841
  3656   2      14.544385288966724      15.480197898423818      33.910705779334499
  3657   1      14.894422066549911      15.587352014010506      34.610779334500876
  3658   1      15.115873905429071      15.451623467600697      33.374935201401044
  3659   2       13.83002451838879      16.265994746059548      33.696397548161116
  3660   1      13.479987740805605      16.137409807355517      32.996323992994746
  3661   1      13.258535901926445      16.287425569176882      34.246455341506127
  3662   3      14.322933450087563      17.144658493870399      33.689253940455345
  3663   1      13.865742556917686       17.62328021015762      33.553525394045536
  3664   1      21.645131348511381      28.653010507880907      23.781070052539405
  3665   2      21.380817863397549      29.388802101576182      23.759639229422064
  3666   1      20.837903677758312      29.424520140105074      23.188150612959721
  3667   1      21.009350262697019      29.531674255691769      24.438281961471105
  3668   2      22.188045534150611      30.088875656742552      23.595336252189139
  3669   1      22.723816112084066      30.031726795096322      24.166824868651489
  3670   1      22.559513134851137       29.92457267950963      22.909549912434322
  3671   3      21.802290718038527      31.017544658493868      23.566761821366022
  3672   1      22.309486865148866      31.439017513134846       23.45960770577933
  3673   1      24.323984238178632      21.380817863397549      22.988129597197897
  3674   2       24.93119089316988      21.609413309982486      22.559513134851137
  3675   1      25.124068301225922      22.345204903677761      22.795252189141856
  3676   1        25.5455411558669      21.152222416812609      22.745246935201401
  3677   2      24.709739054290722      21.559408056042027      21.502259194395794
  3678   1      24.516861646234673      20.830760070052541      21.295094570928192
  3679   1      24.088245183887913      22.030886164623467      21.330812609457091
  3680   3      25.516966725043783      21.873726795096321      20.995063047285466
  3681   1      25.359807355516633      21.838008756567426      20.337851138353766
  3682   1      13.208530647985986      32.739154115586686      6.0149176882661992
  3683   2      13.865742556917686      33.167770577933453      6.0149176882661992
  3684   1      14.472949211908929      32.660574430823118      6.0077740805604201
  3685   1      13.894316987740803      33.560669001751315      5.3362749562171627
  3686   2      13.894316987740803      33.832126094570931      6.8650070052539389
  3687   1      13.279966725043783      34.325035026269703      6.8578633975481598
  3688   1      13.865742556917686      33.424940455341513      7.5436497373029781
  3689   3      14.758693520140101      34.353609457092823       6.822145359019264
  3690   1      14.765837127845884      34.760795096322241      7.3579159369527138
  3691   1      9.1366742556917657      34.282173380035026      15.151591943957969
  3692   2      8.5294676007005243      34.453619964973733      15.608782837127846
  3693   1      8.0151278458844146      33.853556917688266      15.551633975481609
  3694   1      8.7866374781085828      34.467907180385289      16.351718038528897
  3695   2      8.0794203152364279      35.396576182136599      15.330182136602453
  3696   1      8.6009036777583177      35.982352014010509      15.380187390542908
  3697   1      7.8293940455341513      35.368001751313486      14.572959719789841
  3698   3      7.2936234676006997      35.568022767075306      15.937388791593694
  3699   1      7.0293099824868639      36.153798598949209      15.751654991243431
  3700   1      5.6648809106830127      20.244984238178635      6.4649649737302974
  3701   2      5.7791786339754818      20.816472854640981      5.9506252189141859
  3702   1      6.1006409807355508      20.502154115586691      5.3005569176882652
  3703   1      5.0648178633975469      21.087929947460594       5.736316987740806
  3704   2      6.3935288966725041      21.602269702276708      6.3649544658493875
  3705   1      6.0577793345008759      21.902301225919437      7.0150227670753056
  3706   1      7.1007460595446581      21.316525394045534      6.5792626970227666
  3707   3      6.5078266199649732      22.316630472854644      5.6648809106830127
  3708   1      6.8935814360770573      22.795252189141856       5.936338003502625
  3709   1      37.182478108581435      39.296985989492121      32.431978984238178
  3710   2      36.432399299474604      39.504150612959727      32.539133099824866
  3711   1      36.260952714535904      40.061352014010509      32.010506129597196
  3712   1      35.989495621716287       38.87551313485114      32.360542907180388
  3713   2      36.260952714535904      39.832756567425569      33.553525394045536
  3714   1      36.446686514886167      39.268411558669001      34.067865148861642
  3715   1      36.725287215411555      40.461394045534149      33.717828371278458
  3716   3      35.296565674255689       40.08992644483363      33.646392294220668
  3717   1      35.203698774080564      40.297091068301221      34.275029772329248
  3718   1        36.5038353765324       27.84578283712785      20.002101576182135
  3719   2      36.653851138353758      27.217145359019266       20.43786164623468
  3720   1      36.189516637478107       26.63136952714536      20.173548161120841
  3721   1      37.396786339754819      27.002837127845879      20.294989492119093
  3722   2      36.489548161120837      27.424309982486864      21.480828371278459
  3723   1       36.94673905429071      28.017229422066546      21.723711033274952
  3724   1      35.732325744308227      27.645761821366026      21.609413309982486
  3725   3      36.689569176882657      26.588507880910683      22.002311733800351
  3726   1      36.575271453590197       26.73138003502627      22.652380035026269
  3727   1      25.374094570928197      32.724866900175137      15.608782837127846
  3728   2      25.066919439579678      32.874882661996502      14.908709281961473
  3729   1       25.34552014010508      32.331968476357268      14.408656742556916
  3730   1      24.288266199649733      32.753441330998243      14.958714535901922
  3731   2      25.295514886164618      33.882131348511386      14.594390542907181
  3732   1      25.016914185639227      34.403614711033271      15.108730297723294
  3733   1      26.081311733800344      33.989285464098074      14.551528896672501
  3734   3      24.881185639229422      34.025003502626966      13.687152364273205
  3735   1      25.038345008756561      34.653640980735553       13.50141856392294
  3736   1      3.7361068301225924      11.829814360770575      37.425360770577932
  3737   2      3.2574851138353766      11.222607705779332      37.553945709281955
  3738   1      3.4146444833625216      10.944007005253939      38.275450087565673
  3739   1      2.5216935201401052      11.494064798598949      37.568232924693525
  3740   2      3.3789264448336245      10.465385288966726      36.789579684763567
  3741   1      3.2289106830122591      10.765416812609455      36.075218914185641
  3742   1      4.1290052539404547      10.201071803852889      36.782436077057795
  3743   3      2.7502889667250439      9.7081628721541158      36.996744308231172
  3744   1      2.8431558669001751      9.2438283712784592      36.518122591943964
  3745   1      7.4150647985989488      30.260322241681259      38.068285464098068
  3746   2      6.9221558669001739      29.853136602451844      37.632525394045537
  3747   1      7.0078791593695264      29.088770577933449      37.825402802101578
  3748   1      6.1863642732049033      30.053157618213657      37.846833625218913
  3749   2      7.0936024518388789      30.031726795096322      36.575271453590197
  3750   1      7.0078791593695264       30.79609281961471      36.410968476357269
  3751   1      7.8293940455341513      29.824562171628717       36.37525043782837
  3752   3      6.4292469352014008      29.474525394045536      36.053788091068299
  3753   1      6.5506882661996499       29.59596672504378      35.403719789842384
  3754   1      4.3861751313485113      20.595021015761819      19.609203152364277
  3755   2      4.3861751313485113      19.873516637478108      19.902091068301225
  3756   1      4.7076374781085812      19.402038528896675      19.352033274956217
  3757   1      4.8647968476357271       19.86637302977233       20.52358493870403
  3758   2      3.3860700525394045      19.559197898423815       20.16640455341506
  3759   1      3.0717513134851133      20.044963222416815      20.702175131348511
  3760   1      2.9074483362521883      19.580628721541157      19.530623467600702
  3761   3       3.436075306479859      18.623385288966727       20.52358493870403
  3762   1      2.8074378283712784      18.437651488616456      20.680744308231169
  3763   1      38.589768826619967      40.168506129597198      22.673810858143604
  3764   2      38.189726795096313      39.689884413309983      22.202332749562174
  3765   1      38.582625218914174       39.00409807355517      22.180901926444836
  3766   1      37.496796847635714      39.554155866900174      22.538082311733795
  3767   2      38.082572679509632      40.132788091068306      21.216514886164624
  3768   1       37.70396147110332    0.028574430823119383      21.259376532399294
  3769   1      38.789789842381779      40.275660245183886      20.895052539404553
  3770   3      37.568232924693525      39.482719789842378      20.645026269702274
  3771   1      37.511084063047292      39.761320490367773      20.037819614711033
  3772   1      1.2358441330998249      17.687572679509628      34.810800350262703
  3773   2      1.8859124343257445      17.466120840630474      34.432189141856398
  3774   1       1.664460595446585      17.130371278458846      33.753546409807356
  3775   1      2.2859544658493873      18.116189141856392      34.246455341506127
  3776   2      2.4788318739054289      16.794621716287214      35.046539404553407
  3777   1      2.6788528896672501      17.144658493870399      35.725182136602456
  3778   1      2.0573590192644482      16.144553415061296      35.232273204903684
  3779   3      3.2932031523642729      16.530308231173379      34.525056042031522
  3780   1      3.6503835376532399      16.115978984238179      34.910810858143606
  3781   1      21.537977232924693       17.28038704028021      40.539973730297724
  3782   2      21.730854640980734       17.16608931698774      39.789894921190893
  3783   1      21.766572679509633      17.866162872154113      39.439858143607708
  3784   1      22.459502626970227      16.866057793345011      39.775607705779329
  3785   2      21.030781085814361      16.501733800350262      39.311273204903671
  3786   1      21.002206654991237      15.801660245183887      39.675597197898419
  3787   1      20.294989492119093      16.808908931698774       39.33270402802102
  3788   3      21.309381786339756      16.380292469352014       38.34688616462347
  3789   1      20.859334500875658      15.965963222416811      38.061141856392297
  3790   1      16.708898423817864      3.5146549912434319      34.103583187390548
  3791   2      16.387436077057796      4.2147285464098072      34.175019264448331
  3792   1      15.958819614711034      4.2147285464098072      34.839374781085802
  3793   1      16.966068301225921      4.7362119089316996      34.282173380035026
  3794   2      15.787373029772329      4.4576112084063046       33.31064273204904
  3795   1      16.230276707530646      4.4504676007005255      32.653430823117333
  3796   1      15.208740805604201      3.9218406304728544       33.21063222416813
  3797   3      15.387330998248684      5.3719929947460594      33.446371278458848
  3798   1      15.015863397548161      5.5077215411558669      32.896313485113836
  3799   1      0.4143292469352034      36.439542907180382      25.474105078809103
  3800   2       40.54711733800351      36.839584938704029      25.609833625218915
  3801   1      40.454250437828371      36.875302977232913      26.395630472854638
  3802   1      40.668558669001747      37.582520140105075      25.366950963222422
  3803   2      39.704171628721532      36.389537653239934      25.116924693520136
  3804   1      39.818469352014006      36.353819614711036      24.338271453590192
  3805   1      39.597017513134851      35.646602451838881      25.366950963222422
  3806   3      38.882656742556911      36.939595446584939      25.324089316987742
  3807   1      38.368316987740812      36.646707530647987      25.009770577933448
  3808   1      34.160732049036781      40.432819614711029      19.202017513134852
  3809   2      34.532199649737301    0.014287215411556352      19.773506129597198
  3810   1      35.289422066549911    0.078579684763571855      19.559197898423815
  3811   1      34.246455341506127     0.75007880910683489      19.809224168126097
  3812   2      34.417901926444827       40.28994746059545      20.716462346760068
  3813   1      33.653535901926446      40.225654991243438      20.909339754816109
  3814   1      34.703646234676008      39.554155866900174      20.666457092819616
  3815   3      34.917954465849384    0.014287215411556352      21.423679509632226
  3816   1      34.839374781085802      40.468537653239927      22.002311733800351
  3817   1      21.152222416812609      18.609098073555167      5.5005779334500877
  3818   2      21.437966725043783      19.330602451838878      5.4434290718038527
  3819   1      20.937914185639233      19.809224168126097      5.8363274956217159
  3820   1      22.123753064798596      19.352033274956217      5.8291838879159368
  3821   2      21.552264448336253       19.62349036777583      4.4076059544658497
  3822   1      22.038029772329249      19.130581436077058      4.0289947460595448
  3823   1       20.85219089316988      19.594915936952713      4.0361383537653239
  3824   3      21.909444833625219      20.566446584938703      4.3861751313485113
  3825   1      21.966593695271452      20.730749562171631      3.7361068301225924
  3826   1      20.180691768826616      25.766992994746058      14.151486865148863
  3827   2      19.602059544658495      25.624120840630475      14.651539404553414
  3828   1      19.859229422066548      25.081206654991242      15.165879159369528
  3829   1      19.466330998248687      26.281332749562168      15.058725043782836
  3830   2      18.709108581436077      25.295514886164618      14.122912434325745
  3831   1      18.473369527145355      25.845572679509633      13.608572679509633
  3832   1      18.859124343257445      24.631159369527143       13.71572679509632
  3833   3      17.987604203152365      25.116924693520136      14.808698774080561
  3834   1      17.444690017513135      24.916903677758317      14.465805604203153
  3835   1      34.525056042031522      2.6502784588441326      39.239837127845888
  3836   2      34.646497373029774      3.4146444833625216      39.346991243432569
  3837   1      34.332178633975481      3.7861120840630473      38.725497373029768
  3838   1      34.232168126094571      3.6360963222416811      39.975628721541156
  3839   2      35.696607705779336       3.628952714535902      39.461288966725043
  3840   1      35.996639229422058      3.2360542907180383      40.075639229422066
  3841   1      36.103793345008754      3.3932136602451837      38.818364273204907
  3842   3      35.803761821366017      4.6219141856392296      39.582730297723295
  3843   1      36.468117338003509      4.7362119089316996      39.647022767075306
  3844   1      27.095704028021011      18.016178633975478      23.202437828371277
  3845   2      27.374304728546409      18.501943957968475      22.659523642732051
  3846   1      27.767203152364271      19.073432574430822      23.030991243432577
  3847   1      27.895788091068297      18.101901926444832      22.223763572679509
  3848   2      26.567077057793345      18.887698774080558      22.052316987740802
  3849   1      26.174178633975483      18.309066549912437      21.695136602451836
  3850   1      26.045593695271453      19.287740805604205      22.502364273204904
  3851   3      26.967119089316984      19.516336252189141      21.366530647985986
  3852   1      26.452779334500875      19.752075306479863      21.002206654991237
  3853   1     0.14287215411558671      18.980565674255693      40.589978984238179
  3854   2      0.4143292469352014      18.273348511383531      40.389957968476359
  3855   1      40.697133099824875      17.966173380035027      39.875618213660246
  3856   1      1.0929719789842383      18.380502626970227      40.004203152364269
  3857   2     0.55005779334500882      17.644711033274955     0.47147810858143613
  3858   1      1.0501103327495622      17.973316987740805     0.97867425569176891
  3859   1      40.647127845884413      17.551844133099824     0.85008931698774071
  3860   3     0.89295096322241685      16.751760070052541      0.1643029772329247
  3861   1     0.97153064798598954      16.373148861646232     0.71436077057793346
  3862   1      30.624646234676007      39.168401050788091       17.98046059544658
  3863   2      31.060406304728545      38.761215411558666      17.473264448336252
  3864   1      31.081837127845883      38.011136602451835      17.730434325744309
  3865   1      30.674651488616458      38.754071803852881      16.787478108581436
  3866   2      32.046224168126095      39.189831873905426      17.373253940455342
  3867   1      32.003362521891425      39.932767075306472      17.123227670753064
  3868   1      32.417691768826622      39.196975481611211      18.073327495621715
  3869   3      32.560563922942201      38.625486865148865      16.716042031523642
  3870   1      33.174914185639231      38.904087565674253      16.666036777583187
  3871   1      26.967119089316984      37.346781085814364       32.52484588441331
  3872   2      27.245719789842383      37.653956217162872      33.182057793345002
  3873   1      27.945793345008756      37.975418563922943      33.017754816112081
  3874   1      26.767098073555161       38.24687565674256      33.389222416812608
  3875   2      27.310012259194394      36.911021015761825      33.967854640980732
  3876   1      26.602795096322243      36.596702276707532      34.110726795096319
  3877   1      27.788633975481606      36.318101576182137      33.746402802101578
  3878   3      27.674336252189143       37.36106830122592      34.796513134851146
  3879   1      27.710054290718038      36.882446584938705      35.267991243432576
  3880   1      36.153798598949209      11.308330998248685      11.322618213660244
  3881   2      35.989495621716287      11.965542907180385       11.70837302977233
  3882   1      36.660994746059544      12.208425569176882      12.044122591943957
  3883   1      35.789474605954453      12.515600700525392      11.179746059544657
  3884   2      35.210842381786343       11.80838353765324       12.43702101576182
  3885   1      34.553630472854643      11.551213660245185      12.086984238178633
  3886   1      35.425150612959719      11.244038528896672      12.958504378283713
  3887   3      35.039395796847636       12.67276007005254      12.915642732049037
  3888   1      34.553630472854643      12.558462346760068      13.372833625218917
  3889   1       32.45340980735552      38.154008756567428      5.7077425569176885
  3890   2      32.231957968476358       37.66109982486865      5.1433975481611194
  3891   1      32.189096322241681      36.939595446584939      5.4648598949211902
  3892   1       31.49616637478108      37.861120840630463      4.9219457092819603
  3893   2      32.917744308231171      37.696817863397548      4.3004518388791588
  3894   1       32.95346234676007      38.425465849387038      4.0004203152364282
  3895   1      33.646392294220668      37.503940455341507      4.5361908931698762
  3896   3      32.596281961471099       37.04674956217162      3.6075218914185641
  3897   1      33.032042031523638      37.075323992994754      3.0931821366024517
  3898   1      23.481038528896672      38.939805604203151      9.4509929947460591
  3899   2      22.759534150612961      38.704066549912433      9.2581155866900176
  3900   1      22.673810858143604      38.818364273204907      8.4866059544658494
  3901   1      22.723816112084066      37.925413309982488      9.3795569176882658
  3902   2      22.023742556917686      39.239837127845888      9.8438914185639206
  3903   1      22.130896672504377      39.118395796847629      10.615401050788089
  3904   1      22.080891418563926      40.018490367775833       9.715306479859894
  3905   3      21.109360770577933      38.911231173380024      9.5652907180385291
  3906   1      20.659313485113834      39.254124343257445       9.929614711033274
  3907   1      31.467591943957967      20.916483362521891      14.530098073555163
  3908   2        30.6960823117338      20.845047285464094      14.422943957968476
  3909   1      30.338901926444834      21.216514886164624      15.023007005253941
  3910   1      30.510348511383533      21.230802101576177      13.765732049036776
  3911   2       30.41033800350262      19.802080560420311      14.365795096322241
  3912   1       30.78180560420315      19.444900175131348      13.772875656742558
  3913   1       30.61035901926445       19.42346935201401      15.037294220665499
  3914   3      29.410232924693521      19.759218914185638      14.237210157618211
  3915   1      29.245929947460596       19.10915061295972      14.208635726795094
  3916   1      39.375565674255682      12.179851138353765      25.231222416812606
  3917   2      38.761215411558666      12.494169877408057      24.859754816112083
  3918   1      38.411178633975481      11.915537653239928      24.452569176882662
  3919   1       38.24687565674256      12.729908931698775      25.409812609457092
  3920   2       39.07553415061296      13.308541155866898      24.231117338003504
  3921   1      39.425570928196144      13.872886164623466      24.652590192644482
  3922   1      39.597017513134851      13.058514886164625      23.681059544658492
  3923   3      38.254019264448338      13.680008756567423      23.766782837127842
  3924   1      38.461183887915929      14.180061295971978       23.37388441330998
  3925   1       32.78201576182137     0.81437127845884416      15.080155866900176
  3926   2       32.38197373029773     0.42861646234675999      14.537241681260944
  3927   1       32.22481436077058      40.497112084063048      14.822985989492119
  3928   1      31.689043782837128     0.79294045534150615      14.437231173380034
  3929   2      32.939175131348513     0.37861120840630474      13.608572679509633
  3930   1      33.096334500875656      1.1072591943957968      13.344259194395796
  3931   1      33.632105078809097     0.01428721541155867       13.71572679509632
  3932   3      32.389117338003494      40.661415061295976      12.937073555166375
  3933   1      32.746297723292464      40.639984238178634       12.36558493870403
  3934   1      18.823406304728547      3.6932451838879161      6.3078056042031516
  3935   2      19.602059544658495      3.6861015761821365      6.3720980735551667
  3936   1      19.802080560420311      4.3290262697022763      6.7792837127845882
  3937   1      19.794936952714536      3.0646077057793342       6.822145359019264
  3938   2       20.08068126094571      3.6432399299474603      5.4077110332749552
  3939   1      19.852085814360766      3.0003152364273205      5.0076690017513137
  3940   1       19.86637302977233      4.2718774080560413       4.964807355516637
  3941   3      21.073642732049034      3.6432399299474603      5.5434395796847635
  3942   1      21.359387040280211      3.6218091068301224      4.9362329246935195
  3943   1      32.589138353765328      34.382183887915936      36.460973730297717
  3944   2      33.103478108581442      34.167875656742552      35.910915936952712
  3945   1       33.31064273204904      34.825087565674252      35.518017513134858
  3946   1      33.746402802101578      33.910705779334499       36.27523992994746
  3947   2      32.689148861646231      33.410653239929943      35.253704028021012
  3948   1      32.474840630472855      32.774872154115592      35.668033274956223
  3949   1      32.031936952714538      33.689253940455345      34.896523642732042
  3950   3      33.382078809106837      33.174914185639231      34.567917688266199
  3951   1      33.110621716287213      32.710579684763573      34.167875656742552
  3952   1      15.801660245183887      4.2361593695271456      19.280597197898423
  3953   2      16.144553415061296      4.9290893169877394       19.42346935201401
  3954   1      16.680323992994747      5.0433870402802103       18.85198073555166
  3955   1      15.601639229422069      5.4862907180385285       19.33774605954466
  3956   2      16.594600700525394      4.9433765323992995      20.402143607705778
  3957   1      16.044542907180386      4.8147915936952703      20.959345008756571
  3958   1      17.137514886164624       4.371887915936953      20.473579684763575
  3959   3      17.023217162872154      5.8434711033274951      20.537872154115586
  3960   1      17.301817863397549      5.8363274956217159      21.152222416812609
  3961   1      15.501628721541154      14.494380035026269      27.917218914185639
  3962   2      16.158840630472856      14.144343257443081      27.681479859894921
  3963   1      16.230276707530646       14.27292819614711      26.902826619964969
  3964   1      16.766047285464097      14.508667250437828      28.031516637478106
  3965   2      16.144553415061296      13.087089316987742      27.924362521891414
  3966   1      16.058830122591946      12.979935201401048      28.695872154115587
  3967   1      15.523059544658492      12.737052539404552      27.567182136602451
  3968   3      17.001786339754815      12.679903677758317      27.595756567425568
  3969   1      16.980355516637474      12.022691768826622      27.752915936952707
  3970   1      29.045908931698772      9.4081313485113842      27.510033274956218
  3971   2      28.760164623467599      10.093917688266201      27.267150612959718
  3972   1       28.07437828371279      9.9510455341506123      26.909970227670751
  3973   1      28.603005253940445      10.529677758318739      27.902931698774079
  3974   2      29.460238178633968      10.593970227670754      26.609938704028018
  3975   1      30.146024518388785       10.72255516637478      26.981406304728544
  3976   1      29.617397548161122      10.143922942206654       25.97415761821366
  3977   3      29.053052539404554      11.472633975481612      26.324194395796845
  3978   1      29.495956217162863      11.765521891418562      25.909865148861645
  3979   1       19.12343782837128      34.475050788091067      24.516861646234673
  3980   2      18.423364273204907      34.189306479859894      24.309697022767075
  3981   1      17.916168126094568      34.789369527145354      24.288266199649733
  3982   1      18.487656742556918      33.910705779334499      23.573905429071804
  3983   2      18.109045534150614      33.410653239929943      24.995483362521892
  3984   1      18.630528896672505      32.824877408056039      25.009770577933448
  3985   1      18.051896672504377      33.703541155866901       25.73127495621716
  3986   3      17.208950963222414      33.074903677758314      24.695451838879158
  3987   1      17.023217162872154      32.596281961471099        25.1312119089317
  3988   1       19.18058669001751      38.604056042031523      5.7005989492119093
  3989   2       19.39489492119089      39.161257443082313      6.2077950963222417
  3990   1      18.751970227670753      39.589873905429073      6.3792416812609458
  3991   1      19.616346760070055       38.80407705779335      6.8721506129597181
  3992   2       20.19497898423818      39.761320490367773      5.8006094570928193
  3993   1      20.816472854640981      39.318416812609449       5.622019264448336
  3994   1      19.959239929947461      40.111357267950964      5.1219667250437828
  3995   3       20.43786164623468      40.468537653239927      6.4792521891418566
  3996   1      20.930770577933451    0.042861646234673347      6.2077950963222417
  3997   1      23.252443082311732      20.616451838879158      2.7931506129597201
  3998   2      23.109570928196145      20.573590192644478      2.0216409807355515
  3999   1      23.302448336252183      19.844942206654991      1.7859019264448337
  4000   1      22.330917688266197      20.652169877408056      1.9216304728546409
  4001   2      23.652485113835375      21.337956217162869      1.4858704028021017
  4002   1       23.45960770577933      22.059460595446584      1.7430402802101574
  4003   1      24.438281961471105      21.252232924693519      1.6001681260945708
  4004   3      23.445320490367777      21.237945709281959     0.50719614711033267
  4005   1      23.795357267950962      21.716567425569178     0.17859019264448336
  4006   1      23.973947460595447      12.337010507880908      20.866478108581429
  4007   2      24.602584938704027      12.022691768826622       20.52358493870403
  4008   1       24.35970227670753      11.408341506129597      20.087824868651488
  4009   1      24.888329246935204      12.558462346760068      20.016388791593691
  4010   2      25.338376532399298      11.736947460595447      21.259376532399294
  4011   1      25.559828371278456      12.358441330998248      21.687992994746061
  4012   1      25.038345008756561      11.201176882661997      21.759429071803847
  4013   3      26.131316987740803      11.344049036777584      20.773611208406301
  4014   1      26.574220665499126      11.165458844133099      21.245089316987741
  4015   1      26.652800350262694      28.845887915936952       14.27292819614711
  4016   2      26.717092819614713      29.588823117338006      14.501523642732046
  4017   1      27.438597197898424      29.831705779334502      14.294359019264448
  4018   1        26.2027530647986      30.010295971978984      14.087194395796844
  4019   2       26.54564623467601      29.681690017513137      15.565921190893167
  4020   1      25.831285464098073      29.424520140105074      15.758798598949211
  4021   1      27.074273204903673      29.245929947460596      15.973106830122594
  4022   3      26.645656742556913      30.653220665499123      15.808803852889669
  4023   1      26.538502626970228      30.703225919439582      16.473159369527146
  4024   1      9.1866795096322242      2.1287950963222411      12.665616462346758
  4025   2      9.7653117338003508      2.3859649737302977      13.115663747810858
  4026   1      10.443954465849387      2.2788108581436073      12.729908931698775
  4027   1      9.6724448336252173       3.164618213660245       13.19424343257443
  4028   2      9.7581681260945707      1.8930560420315237      14.080050788091068
  4029   1      9.0723817863397525      2.0073537653239932      14.451518388791595
  4030   1      9.8438914185639206      1.1072591943957968      13.987183887915936
  4031   3      10.522534150612959      2.2573800350262698      14.630108581436078
  4032   1      10.508246935201402      1.9359176882661995      15.215884413309981
  4033   1      9.3652697022767075      32.596281961471099      25.995588441330995
  4034   2      8.8294991243432577      32.867739054290716      26.495640980735555
  4035   1       8.850929947460596      33.660679509632224      26.445635726795089
  4036   1      8.1222819614711046      32.639143607705776      26.238471103327498
  4037   2       9.015232924693521       32.52484588441331      27.502889667250436
  4038   1      9.0080893169877392      31.731905429071801      27.531464098073553
  4039   1      9.7367373029772306      32.753441330998243      27.745772329246932
  4040   3      8.3080157618213661      32.903457092819615      28.102952714535903
  4041   1      8.4366007005253945      32.682005253940446      28.724446584938704
  4042   1      14.422943957968476      37.782541155866902      2.5502679509632222
  4043   2      14.158630472854639      37.203908931698763      3.0074588441330996
  4044   1      13.444269702276708       37.00388791593695      2.7431453590192643
  4045   1      14.630108581436078      36.582415061295976      2.8931611208406305
  4046   2      14.144343257443081      37.503940455341507      4.0432819614711031
  4047   1      14.858704028021016      37.711105078809105      4.2861646234675996
  4048   1      13.665721541155865      38.139721541155865      4.1432924693520139
  4049   3      13.794306479859896       36.73243082311734      4.5861961471103321
  4050   1      13.780019264448335       36.93245183887916      5.2291208406304728
  4051   1     0.15001576182136603      38.275450087565673      32.853451838879153
  4052   2     0.49290893169877409      38.918374781085816      32.581994746059543
  4053   1      1.2644185639229422       38.84693870402802      32.717723292469344
  4054   1      0.4000420315236427      38.932661996497373      31.803341506129595
  4055   2    0.078579684763572674      39.804182136602449      33.046329246935208
  4056   1       40.08992644483363      39.854187390542904      32.903457092819615
  4057   1     0.17144658493870402      39.782751313485115      33.832126094570931
  4058   3     0.55005779334500882      40.611409807355514      32.667718038528896
  4059   1     0.28574430823117342     0.35718038528896034      32.967749562171633
  4060   1      19.409182136602453      27.095704028021011      13.980040280210156
  4061   2      18.716252189141859      27.424309982486864      14.108625218914185
  4062   1      18.673390542907182       28.07437828371279      13.658577933450086
  4063   1      18.166194395796847      26.931401050788093      13.837168126094571
  4064   2      18.573380035026268      27.645761821366026      15.151591943957969
  4065   1      18.623385288966727      26.988549912434326      15.587352014010506
  4066   1      19.137725043782837      28.145814360770572      15.408761821366022
  4067   3      17.666141856392294      28.067234676007004      15.265889667250439
  4068   1        17.5947057793345      28.202963222416809      15.923101576182136
  4069   1      4.9862381786339753      27.052842381786338      10.529677758318739
  4070   2      5.1648283712784586      26.438492119089311      10.072486865148862
  4071   1      4.8433660245183887      26.567077057793345      9.3652697022767075
  4072   1      5.9434816112084068      26.438492119089311      9.9724763572679507
  4073   2      4.8147915936952703      25.516966725043783      10.515390542907181
  4074   1      5.1362539404553402      25.409812609457092      11.222607705779332
  4075   1      4.0289947460595448      25.538397548161118      10.615401050788089
  4076   3      5.0576742556917686      24.759744308231177      9.8938966725043773
  4077   1      4.8362224168126087      24.195399299474605      10.179640980735552
  4078   1      12.022691768826622      28.717302977232922      8.4223134851138362
  4079   2      12.579893169877408      28.674441330998246       7.872255691768828
  4080   1      13.122807355516638      29.224499124343261      8.0508458844133095
  4081   1      12.929929947460595      27.974367775831873      7.9436917688266204
  4082   2      12.158420315236425      28.817313485113832       6.886437828371279
  4083   1      11.615506129597195      28.274399299474606      6.7364220665499115
  4084   1       11.80838353765324      29.524530647985983      6.8364325744308232
  4085   3      12.908499124343258      28.760164623467599      6.2149387040280208
  4086   1      12.637042031523642      28.853031523642731      5.6077320490367777
  4087   1      36.996744308231172      4.5147600700525397      13.851455341506128
  4088   2      36.610989492119089       3.936127845884414      14.208635726795094
  4089   1      35.846623467600701      4.0361383537653239       14.06576357267951
  4090   1      36.818154115586687      3.2574851138353766      13.858598949211906
  4091   2      36.832441330998243      3.9146970227670757      15.265889667250439
  4092   1       37.60395096322241      3.8218301225919444      15.387330998248684
  4093   1      36.625276707530645      4.6004833625218922      15.608782837127846
  4094   3      36.310957968476359      3.1574746059544658      15.680218914185639
  4095   1      36.453830122591945       3.164618213660245      16.344574430823116
  4096   1      29.381658493870404      27.981511383537654      36.568127845884412
  4097   2      29.488812609457092      28.610148861646231      36.118080560420317
  4098   1        30.2103169877408      28.552999999999997      35.796618213660246
  4099   1      28.967329246935197      28.567287215411561      35.525161120840629
  4100   2      29.360227670753066      29.517387040280202      36.689569176882657
  4101   1      28.638723292469354        29.5531050788091       37.00388791593695
  4102   1       29.88171103327495      29.545961471103329      37.282488616462352
  4103   3       29.51024343257443      30.303183887915939      36.068075306479855
  4104   1      29.431663747810855      30.860385288966729      36.439542907180382
  4105   1      20.702175131348511      32.160521891418561      12.958504378283713
  4106   2      20.873621716287214      32.039080560420317      12.208425569176882
  4107   1      21.580838879159369      32.360542907180388      12.072697022767075
  4108   1      20.959345008756571      31.260427320490372       12.10841506129597
  4109   2      20.109255691768826      32.446266199649742      11.558357267950964
  4110   1      19.409182136602453      32.117660245183892      11.715516637478107
  4111   1      20.037819614711033      33.224919439579686      11.679798598949214
  4112   3      20.380712784588439       32.26767600700525      10.608257443082312
  4113   1      19.894947460595446       32.52484588441331      10.215359019264447
  4114   1      10.086774080560421      34.153588441330996      39.668453590192648
  4115   2      10.108204903677757      33.817838879159375      40.368527145359025
  4116   1       9.872465849387039      33.067760070052536      40.275660245183886
  4117   1      10.858283712784589      33.789264448336255      40.604266199649736
  4118   2      9.4867110332749558      34.346465849387037     0.28574430823117342
  4119   1      9.7295936952714541      35.096544658493876     0.35718038528896673
  4120   1       8.729488616462346      34.367896672504379    0.035718038528896677
  4121   3      9.5367162872154108      33.874987740805601      1.1715516637478109
  4122   1      9.1438178633975493      34.217880910683014      1.6001681260945708
  4123   1      15.644500875656743      16.080260945709281      22.445215411558664
  4124   2      16.366005253940454      16.137409807355517      22.152327495621712
  4125   1      16.573169877408056      15.415905429071801      21.909444833625219
  4126   1      16.330287215411559      16.594600700525394      21.516546409807358
  4127   2      17.051791593695274      16.530308231173379      22.895262697022766
  4128   1      16.823196147110334      17.244669001751316      23.138145359019262
  4129   1      17.073222416812612      16.058830122591946      23.531043782837124
  4130   3      17.966173380035027      16.580313485113837      22.473789842381787
  4131   1      18.380502626970227      16.823196147110334      22.945267950963224
  4132   1      11.251182136602452      12.394159369527145      13.015653239929946
  4133   2      10.994012259194394      13.008509632224166      13.422838879159368
  4134   1      11.622649737302977      13.472844133099823      13.572854640980735
  4135   1      10.515390542907181      13.422838879159368      12.951360770577933
  4136   2      10.493959719789844      12.694190893169877      14.322933450087563
  4137   1       9.879609457092819       12.22985639229422      14.151486865148863
  4138   1      10.986868651488617      12.272718038528895      14.787267950963223
  4139   3      10.186784588441331      13.515705779334498      14.815842381786338
  4140   1       9.879609457092819      13.301397548161122      15.380187390542908
  4141   1      28.624436077057787      22.930980735551664      16.866057793345011
  4142   2      28.417271453590189      22.188045534150611      16.994642732049037
  4143   1       28.07437828371279      22.159471103327494      17.701859894921192
  4144   1      27.874357267950966      21.995168126094569      16.466015761821367
  4145   2      29.281647985989494      21.537977232924693        16.9374938704028
  4146   1      29.617397548161122      21.587982486865144      16.230276707530646
  4147   1      29.824562171628717      21.745141856392294      17.473264448336252
  4148   3      28.974472854640979      20.595021015761819      17.108940455341507
  4149   1      29.517387040280202      20.202122591943958      17.073222416812612
  4150   1      34.389327495621707      12.665616462346758      23.588192644483364
  4151   2      34.996534150612959      12.529887915936952      24.066814360770579
  4152   1      35.368001751313486      11.886963222416814      23.795357267950962
  4153   1      35.496586690017516      13.129950963222417      23.995378283712785
  4154   2      34.667928196147109      12.408446584938703       25.08835026269702
  4155   1      34.289316987740797      13.051371278458843      25.338376532399298
  4156   1      34.153588441330996       11.80123992994746      25.145499124343257
  4157   3      35.475155866900181       12.22985639229422      25.659838879159366
  4158   1      35.253704028021012      12.151276707530648       26.28847635726795
  4159   1        13.1013765323993       9.015232924693521      0.4000420315236427
  4160   2      12.744196147110333      9.3652697022767075       1.000105078809107
  4161   1      13.022796847635727      9.0438073555166376       1.664460595446585
  4162   1      12.972791593695272      10.122492119089317       1.000105078809107
  4163   2      11.672654991243432      9.2724028021015759     0.92152539404553413
  4164   1      11.415485113835377      9.5938651488616458     0.25002626970227676
  4165   1      11.458346760070052      8.5080367775831878     0.91438178633975487
  4166   3       11.25832574430823      9.7367373029772306      1.7144658493870399
  4167   1      10.593970227670754      9.6724448336252173      1.6501733800350262
  4168   1      20.816472854640981      16.630318739054289      6.6864168126094583
  4169   2      20.223553415061296      16.144553415061296      6.8078581436077048
  4170   1      19.709213660245183      16.523164623467604      7.2721926444833622
  4171   1      19.859229422066548      16.030255691768829      6.1220718038528892
  4172   2      20.559302977232925      15.215884413309981      7.2436182136602447
  4173   1      21.080786339754816      14.858704028021016       6.772140105078809
  4174   1      20.923626970227669      15.351612959719791      7.9365481611208404
  4175   3      19.752075306479863      14.630108581436078      7.3936339754816114
  4176   1        19.9806707530648      14.051476357267951      7.6650910683012263
  4177   1       13.83002451838879      8.0079842381786346      8.7080577933450094
  4178   2      13.137094570928197      8.3651646234676011      8.7152014010507877
  4179   1      12.687047285464098      8.0151278458844146      8.1579999999999995
  4180   1      12.794201401050788      8.2151488616462345      9.4081313485113842
  4181   2      13.237105078809108      9.4224185639229425      8.5437548161120827
  4182   1      13.694295971978985      9.7510245183887925      9.1009562171628726
  4183   1      13.594285464098075      9.5652907180385291      7.8436812609457087
  4184   3       12.32272329246935      9.8367478108581423      8.5508984238178627
  4185   1      12.401302977232925      10.493959719789844      8.4437443082311745
  4186   1      22.466646234676006      38.368316987740812      13.765732049036776
  4187   2      22.659523642732051      38.918374781085816      13.244248686514885
  4188   1      23.309591943957965      38.668348511383542       12.87278108581436
  4189   1      22.088035026269701      38.939805604203151      12.701334500875657
  4190   2      22.795252189141856      39.875618213660246       13.71572679509632
  4191   1      22.138040280210159      40.104213660245179      14.087194395796844
  4192   1       23.37388441330998      39.839900175131348      14.258640980735551
  4193   3       23.04527845884413       40.54711733800351      13.001366024518388
  4194   1      23.131001751313487     0.35003677758318791       13.31568476357268
  4195   1      25.559828371278456      30.146024518388785      10.901145359019264
  4196   2       25.41695621716287      29.381658493870404      10.965437828371279
  4197   1      25.816998248686517      29.017334500875656       10.38680560420315
  4198   1       25.73127495621716        29.1387758318739      11.644080560420312
  4199   2       24.35970227670753      29.181637478108581      10.922576182136602
  4200   1      23.981091068301225      29.560248686514878       11.50120840630473
  4201   1      24.052527145359022      29.438807355516644      10.236789842381787
  4202   3      24.223973730297722      28.181532399299467      11.008299474605955
  4203   1      23.559618213660247       28.07437828371279      10.979725043782835
  4204   1      12.294148861646235      27.774346760070049      39.661309982486863
  4205   2      11.915537653239928      27.181427320490368      40.004203152364269
  4206   1      11.208320490367774      27.124278458844131      39.654166374781084
  4207   1      12.301292469352013       26.51707180385289      39.832756567425569
  4208   2      11.836957968476357      27.331443082311729     0.27860070052539082
  4209   1      12.558462346760068      27.395735551663744     0.60006304728546844
  4210   1      11.451203152364274      28.010085814360771     0.43576007005253886
  4211   3      11.336905429071802      26.552789842381785     0.67149912434326542
  4212   1      11.301187390542907      26.659943957968476      1.3358546409807377
  4213   1      33.653535901926446      38.918374781085816      28.188676007005252
  4214   2      34.389327495621707      38.811220665499114      28.424415061295971
  4215   1      34.367896672504379      38.682635726795098      29.203068301225919
  4216   1      34.653640980735553      38.154008756567428      28.095809106830121
  4217   2      35.003677758318737      39.661309982486863      28.174388791593689
  4218   1      35.003677758318737      39.782751313485115      27.395735551663744
  4219   1      34.725077057793342      40.325665499124334      28.510138353765328
  4220   3      35.939490367775832      39.482719789842378      28.502994746059549
  4221   1      36.310957968476359      40.018490367775833      28.338691768826621
  4222   1      16.916063047285466      4.0361383537653239       17.48040805604203
  4223   2      17.551844133099824      4.3576007005253938      17.173232924693519
  4224   1      17.701859894921192      3.9861330998248681      16.494590192644488
  4225   1       17.38039754816112      5.1076795096322236      16.994642732049037
  4226   2      18.387646234676005       4.307595446584938      17.859019264448335
  4227   1      18.216199649737302      4.6719194395796837      18.537661996497377
  4228   1       18.55194921190893       3.550373029772329       18.03760945709282
  4229   3      19.187730297723292      4.7290683012259196      17.416115586690019
  4230   1      19.694926444833627      4.6862066549912438      17.851875656742553
  4231   1      34.182162872154116       18.03760945709282      12.272718038528895
  4232   2      34.725077057793342      18.423364273204907      12.679903677758317
  4233   1      35.425150612959719      18.294779334500877       12.32986690017513
  4234   1      34.575061295971977       19.19487390542907      12.608467600700525
  4235   2      34.732220665499128      18.116189141856392       13.71572679509632
  4236   1      34.032147110332751      18.237630472854644      14.051476357267951
  4237   1      34.889380035026271      17.337535901926444      13.772875656742558
  4238   3      35.453725043782839       18.63767250437828      14.194348511383536
  4239   1      35.446581436077054      18.430507880910682      14.837273204903678
  4240   1      39.411283712784581      24.288266199649733      21.988024518388787
  4241   2      39.461288966725043      24.966908931698775      22.373779334500878
  4242   1      38.946949211908922      25.466961471103325      22.038029772329249
  4243   1      39.211262697022768      24.845467600700523      23.109570928196145
  4244   2      40.475681260945713      25.352663747810858      22.359492119089314
  4245   1     0.17859019264448586      24.838323992994741      22.695241681260946
  4246   1      40.718563922942209      25.466961471103325      21.616556917688264
  4247   3      40.482824868651491      26.224183887915935      22.866688266199645
  4248   1     0.32860595446585239      26.452779334500875      22.845257443082307
  4249   1      39.997059544658498       23.65962872154115      14.608677758318739
  4250   2       40.51854290718039      23.431033274956214      15.137304728546411
  4251   1      40.689989492119089      24.045383537653244      15.594495621716286
  4252   1      40.175649737302976      22.888119089316987      15.601639229422069
  4253   2     0.61435026269702264      23.023847635726792      14.658683012259194
  4254   1     0.42861646234675999      22.416640980735547      14.201492119089316
  4255   1     0.95009982486865152      23.573905429071804      14.194348511383536
  4256   3      1.2572749562171628      22.745246935201401      15.380187390542908
  4257   1      1.8073327495621716      22.495220665499126      15.065868651488616
  4258   1      9.7438809106830124      13.065658493870401      22.638092819614712
  4259   2      9.4795674255691775      12.387015761821365      22.916693520140104
  4260   1       8.793781085814361      12.237000000000002      22.545225919439577
  4261   1       9.986763572679509      11.822670753064799      22.695241681260946
  4262   2      9.3652697022767075      12.422733800350262         23.988234676007
  4263   1      10.051056042031524      12.587036777583187      24.338271453590192
  4264   1      8.8580735551663743      12.994222416812606      24.195399299474605
  4265   3       9.015232924693521      11.529782837127847      24.295409807355515
  4266   1      8.9437968476357259      11.565500875656744      24.966908931698775
  4267   1      16.687467600700522      29.188781085814362      2.8217250437828367
  4268   2      16.873201401050789      29.567392294220664      3.4789369527145357
  4269   1      17.658998248686515      29.638828371278457      3.5003677758318741
  4270   1      16.580313485113837      30.296040280210157      3.4217880910683012
  4271   2      16.494590192644488      29.053052539404554      4.3504570928196147
  4272   1      15.708793345008756      28.981616462346761       4.307595446584938
  4273   1      16.794621716287214      28.317260945709279      4.3861751313485113
  4274   3      16.758903677758319      29.574535901926446      5.1648283712784586
  4275   1      16.516021015761819      29.238786339754814      5.7005989492119093
  4276   1       21.39510507880911      15.265889667250439      4.4361803852889672
  4277   2      20.730749562171631      15.337325744308229      4.0289947460595448
  4278   1      20.223553415061296      14.801555166374779       4.314739054290718
  4279   1      20.423574430823116      16.044542907180386      4.1861541155866897
  4280   2      20.909339754816109      15.208740805604201      2.9717408056042034
  4281   1      21.423679509632226      15.744511383537656      2.7074273204903672
  4282   1      21.223658493870403      14.487236427320489      2.8217250437828367
  4283   3      20.023532399299476      15.294464098073554      2.4859754816112081
  4284   1      20.152117338003503      15.208740805604201      1.8359071803852889
  4285   1      13.322828371278456      24.188255691768823      24.959765323992997
  4286   2       12.77277057793345      24.009665499124342      25.481248686514888
  4287   1      12.244143607705778      24.595441330998248      25.474105078809103
  4288   1      12.401302977232925      23.359597197898427      25.224078809106832
  4289   2       13.20138704028021      23.859649737302973      26.459922942206656
  4290   1       13.73715761821366      23.281017513134849      26.445635726795089
  4291   1      13.572854640980735      24.516861646234673      26.702805604203153
  4292   3      12.458451838879158      23.638197898423819      27.102847635726789
  4293   1      12.737052539404552      23.552474605954465      27.710054290718038
  4294   1      8.1651436077057795      14.922996497373031      39.782751313485115
  4295   2      8.6651961471103327      14.365795096322241      39.547012259194396
  4296   1      9.3867005253940459      14.587246935201399      39.775607705779329
  4297   1      8.4866059544658494      13.708583187390545      39.947054290718036
  4298   2      8.6009036777583177      14.215779334500874      38.482614711033264
  4299   1      7.8651120840630462      14.008614711033273      38.275450087565673
  4300   1      8.7723502626970227      14.887278458844133      38.096859894921188
  4301   3      9.2581155866900176      13.494274956217163      38.225444833625218
  4302   1      9.2081103327495608      13.415695271453586       37.56108931698774
  4303   1      24.566866900175132      4.2147285464098072      33.003467600700525
  4304   2      24.666877408056042      3.5289422066549911      32.646287215411562
  4305   1      25.145499124343257      3.0931821366024517      33.103478108581442
  4306   1      23.966803852889665       3.164618213660245      32.639143607705776
  4307   2      25.066919439579678      3.6575271453590195      31.653325744308233
  4308   1      24.581154115586685      4.1004308231173372      31.217565674255692
  4309   1      25.766992994746058      4.0289947460595448      31.674756567425568
  4310   3      25.174073555166373      2.7431453590192643       31.23899649737303
  4311   1       25.43124343257443      2.8431558669001751      30.617502626970225
  4312   1      18.716252189141859      14.694401050788091      29.717408056042032
  4313   2       18.68053415061296      15.301607705779331      29.224499124343261
  4314   1      18.144763572679505      15.808803852889669       29.51024343257443
  4315   1      19.380607705779333      15.673075306479859       29.25307355516637
  4316   2      18.444795096322242      14.973001751313486      28.224394045534147
  4317   1      18.987709281961472      14.465805604203153      27.967224168126094
  4318   1      17.744721541155869      14.601534150612959      28.210106830122584
  4319   3      18.409077057793343      15.787373029772329      27.624330998248688
  4320   1      18.259061295971982      15.565921190893167      27.009980735551661
  4321   1      31.103267950963218       19.62349036777583      33.610674255691769
  4322   2      30.960395796847635       20.19497898423818      34.117870402802097
  4323   1      31.653325744308233      20.452148861646233      34.396471103327499
  4324   1      30.646077057793342      20.795042031523643      33.717828371278458
  4325   2      30.303183887915939       19.86637302977233      34.910810858143606
  4326   1      29.617397548161122      19.609203152364277      34.617922942206654
  4327   1      30.631789842381789      19.259166374781081      35.303709281961474
  4328   3      30.153168126094567      20.637882661996493      35.539448336252192
  4329   1      29.745982486865149       20.40928721541156      36.025213660245186
  4330   1      39.146970227670757      11.401197898423819      9.3366952714535909
  4331   2      39.911336252189137      11.465490367775832      9.2223975481611209
  4332   1      40.197080560420311      10.736842381786339      9.1080998248686509
  4333   1      40.018490367775833      11.858388791593692      8.5437548161120827
  4334   2      40.389957968476359      11.965542907180385      10.051056042031524
  4335   1       40.08992644483363      12.687047285464098      10.158210157618212
  4336   1      40.268516637478108      11.565500875656744      10.729698774080559
  4337   3     0.58577583187391447      12.022691768826622      9.8653222416812607
  4338   1     0.87152014010508438       12.32986690017513       10.38680560420315
  4339   1      7.0793152364273197      31.903352014010508      17.373253940455342
  4340   2      7.3507723292469338      32.253388791593693      16.730329246935202
  4341   1      6.7364220665499115      32.389117338003494      16.258851138353766
  4342   1      7.6293730297723279      32.960605954465848      16.944637478108582
  4343   2      8.1151383537653228      31.653325744308233      16.258851138353766
  4344   1      8.7152014010507877      31.524740805604207      16.751760070052541
  4345   1      7.8222504378283713      30.946108581436075      16.051686514886164
  4346   3      8.4294570928196144      32.139091068301219      15.437336252189139
  4347   1       8.900935201401051      31.753336252189143      15.151591943957969
  4348   1      12.301292469352013      5.4219982486865153      39.939910683012265
  4349   2      12.215569176882664      5.8506147110332742      39.296985989492121
  4350   1       11.47977758318739      5.7506042031523652      39.039816112084061
  4351   1      12.294148861646235      6.6078371278458841      39.497007005253941
  4352   2      12.944217162872153       5.564870402802101       38.54690718038529
  4353   1      13.680008756567423      5.6577373029772327      38.825507880910678
  4354   1       12.86563747810858      4.7933607705779337      38.354029772329248
  4355   3      12.801345008756567      6.1363590192644475      37.732535901926447
  4356   1      13.258535901926445      5.9434816112084068       37.27534500875656
  4357   1      36.239521891418562      17.201807355516635      30.667507880910684
  4358   2       36.17522942206655      16.666036777583187      31.231852889667245
  4359   1      36.903877408056047      16.473159369527146      31.453304728546403
  4360   1      35.832336252189137      17.016073555166376      31.853346760070046
  4361   2      35.603740805604204      15.808803852889669      30.903246935201395
  4362   1      34.882236427320493      16.023112084063047      30.674651488616458
  4363   1      35.953777583187396      15.465910683012256      30.274609457092822
  4364   3      35.553735551663749      15.151591943957969      31.660469352014015
  4365   1      35.203698774080564      14.622964973730298      31.439017513134846
  4366   1      37.796828371278465     0.79294045534150615      4.6076269702276704
  4367   2      38.504045534150613      1.1072591943957968      4.5219036777583188
  4368   1      38.925518388791588     0.92152539404553413      5.1648283712784586
  4369   1      38.854082311733798     0.75722241681260949      3.9146970227670757
  4370   2      38.446896672504366      2.1788003502626969      4.3861751313485113
  4371   1       38.01828021015762      2.3502469352014006      3.7432504378283715
  4372   1      38.082572679509632      2.5216935201401052      5.0076690017513137
  4373   3      39.375565674255682      2.5431243432574426      4.2861646234675996
  4374   1      39.325560420315234      3.2074798598949208      4.2004413309982489
  4375   1      9.3152644483362526      9.0580945709281959      35.510873905429065
  4376   2      9.8153169877408057       8.615190893169876      35.110831873905425
  4377   1      9.8010297723292474      7.8936865148861646      35.432294220665497
  4378   1      9.5367162872154108      8.5366112084063062      34.375040280210158
  4379   2      10.808278458844132      9.0438073555166376      35.110831873905425
  4380   1      10.801134851138354      9.7653117338003508      34.796513134851146
  4381   1      11.072591943957969      9.1152434325744291      35.860910683012257
  4382   3      11.415485113835377      8.4294570928196144      34.589348511383534
  4383   1      12.029835376532398      8.7080577933450094      34.610779334500876
  4384   1      26.467066549912431      16.416010507880912      25.709844133099825
  4385   2      27.145709281961469      16.215989492119089      26.038450087565675
  4386   1      26.981406304728544      15.715936952714534       26.63136952714536
  4387   1      27.552894921190894      15.808803852889669      25.509823117338005
  4388   2      27.681479859894921      17.087509632224165      26.381343257443078
  4389   1      27.831495621716286      17.573274956217166      25.781280210157622
  4390   1      27.252863397548161      17.487551663747812      26.909970227670751
  4391   3      28.545856392294219      16.780334500875657      26.802816112084056
  4392   1      28.867318739054294      17.330392294220665      27.009980735551661
  4393   1      24.674021015761816      17.058935201401049      31.246140105078805
  4394   2       24.65973380035026      16.444584938704025       31.72476182136602
  4395   1       24.03109632224168      16.530308231173379      32.196239929947453
  4396   1      24.531148861646237      15.801660245183887      31.289001751313485
  4397   2      25.581259194395798      16.366005253940454      32.281963222416813
  4398   1      26.195609457092818      16.294569176882664      31.796197898423813
  4399   1      25.702700525394043      17.023217162872154      32.717723292469344
  4400   3      25.516966725043783      15.565921190893167      32.896313485113836
  4401   1      26.095598949211908      15.530203152364273      33.239206654991243
  4402   1      34.032147110332751      35.525161120840629      10.193928196147111
  4403   2      33.882131348511386      34.803656742556917      10.451098073555167
  4404   1      33.846413309982488      34.332178633975481      9.8224605954465858
  4405   1      34.496481611208402      34.567917688266199      10.879714535901924
  4406   2      32.967749562171633      34.782225919439576      11.029730297723292
  4407   1       33.01061120840631      35.260847635726797      11.644080560420312
  4408   1      32.353399299474596      35.025108581436072      10.586826619964972
  4409   3      32.810590192644483      33.832126094570931      11.329761821366025
  4410   1      32.239101576182136      33.832126094570931       11.68694220665499
  4411   1      26.874252189141853      31.960500875656741      30.403194395796849
  4412   2      27.045698774080559      31.639038528896673       29.71026444833625
  4413   1      27.745772329246932      31.931926444833621      29.488812609457092
  4414   1      27.152852889667251      30.867528896672496      29.831705779334502
  4415   2      26.274189141856393       31.82477232924693      28.981616462346761
  4416   1      25.581259194395798       31.53902802101576      29.231642732049028
  4417   1      26.174178633975483      32.610569176882663      28.881605954465847
  4418   3       26.54564623467601      31.403299474605952      28.117239929947456
  4419   1      26.059880910683013      31.531884413309978      27.667192644483361
  4420   1       30.12459369527145      31.846203152364271      23.102427320490371
  4421   2      29.617397548161122      31.524740805604207      22.602374781085814
  4422   1      29.067339754816107      31.153273204903677      23.038134851138352
  4423   1      29.245929947460596      32.117660245183892      22.230907180385291
  4424   2      30.103162872154115      30.860385288966729      21.909444833625219
  4425   1      30.653220665499123      31.246140105078805      21.495115586690012
  4426   1      30.474630472854635      30.274609457092822      22.295199649737302
  4427   3      29.410232924693521      30.474630472854635      21.295094570928192
  4428   1      29.724551663747807      30.060301225919435      20.873621716287214
  4429   1      7.6722346760070046      6.2435131348511375      8.6009036777583177
  4430   2      7.5079316987740805      7.0007355516637482      8.6866269702276711
  4431   1      7.1578949211908931      7.2364746059544647      8.0222714535901929
  4432   1      6.9721611208406298      7.0578844133099823      9.2581155866900176
  4433   2      8.3937390542907178      7.5722241681260947       8.908078809106831
  4434   1       8.736632224168126      7.3150542907180389      9.5652907180385291
  4435   1      8.9295096322241676      7.5007880910683014      8.3223029772329244
  4436   3      8.1294255691768829      8.5437548161120827      9.0009457092819609
  4437   1      8.6866269702276711      8.8866479859894909      9.1366742556917657
  4438   1      26.002732049036776      25.481248686514888      39.161257443082313
  4439   2      25.516966725043783      25.924152364273201      39.582730297723295
  4440   1      25.802711033274957      26.659943957968476      39.582730297723295
  4441   1      24.824036777583188      25.945583187390543       39.20411908931699
  4442   2      25.402669001751313      25.531253940455336      40.582835376532401
  4443   1      25.124068301225922      24.795462346760072      40.568548161120837
  4444   1      26.102742556917686      25.509823117338005     0.16430297723292284
  4445   3      24.766887915936955      26.131316987740803     0.30003152364272634
  4446   1      24.709739054290722      25.881290718038532     0.92152539404553691
  4447   1      25.959870402802096      34.360753064798594      5.7506042031523652
  4448   2      25.452674255691772      34.453619964973733      5.1576847635726795
  4449   1      25.274084063047283      35.217985989492114      5.1148231173380037
  4450   1      25.831285464098073      34.267886164623469      4.4933292469352013
  4451   2      24.581154115586685      33.832126094570931      5.3005569176882652
  4452   1      24.781175131348508      33.074903677758314      5.3577057793345002
  4453   1      24.209686514886165      34.025003502626966      5.9791996497373017
  4454   3      23.959660245183883      33.982141856392289      4.5219036777583188
  4455   1      23.416746059544661      33.596387040280213      4.6290577933450088
  4456   1      17.473264448336252       29.46738178633975      8.0651330998248678
  4457   2      17.408971978984237      29.174493870402799      8.7866374781085828
  4458   1      17.308961471103327      29.788844133099822      9.2795464098073541
  4459   1      16.744616462346759      28.745877408056039      8.8152119089316994
  4460   2      18.273348511383531      28.581574430823117      9.0438073555166376
  4461   1       18.36621541155867      27.988654991243429      8.5437548161120827
  4462   1      18.937704028021013      29.024478108581434      9.0080893169877392
  4463   3       18.15190718038529      28.238681260945711       9.986763572679509
  4464   1      18.701964973730298      27.881500875656744      10.136779334500877
  4465   1      21.809434325744309      31.060406304728545       37.23248336252189
  4466   2      21.873726795096321      30.753231173380033      36.518122591943964
  4467   1      22.509507880910679      31.074693520140102       36.17522942206655
  4468   1      22.023742556917686      29.981721541155867      36.603845884413303
  4469   2      20.973632224168121      30.917534150612958      35.939490367775832
  4470   1      20.352138353765326       30.59607180385289      36.296670753064802
  4471   1      20.830760070052541      31.696187390542907      35.868054290718042
  4472   3      21.109360770577933      30.510348511383533      35.025108581436072
  4473   1      20.545015761821361      30.624646234676007      34.675071803852887
  4474   1     0.30717513134851687     0.66435551663747794      4.0004203152364282
  4475   2      40.561404553415059     0.19287740805604203       4.314739054290718
  4476   1      39.868474605954468     0.36432399299474605      3.9718458844133102
  4477   1      40.739994746059544      40.247085814360773      4.1075744308231172
  4478   2      40.518542907180375     0.30717513134851132      5.3862802101576186
  4479   1     0.42861646234675738     0.14287215411558671      5.7077425569176885
  4480   1      40.347096322241683      1.0572539404553416      5.5863012259194402
  4481   3      39.811325744308228      40.475681260945713       5.743460595446586
  4482   1      39.797038528896671      40.554260945709281      6.4078161120840624
  4483   1      34.732220665499128      2.0716462346760069      25.852716287215415
  4484   2      34.203593695271451      1.9287740805604205      25.295514886164618
  4485   1      33.782120840630469      1.3072802101576182      25.531253940455336
  4486   1      33.710684763572687      2.5431243432574426      25.274084063047283
  4487   2      34.675071803852887      1.7644711033274956      24.338271453590192
  4488   1      35.096544658493876      2.3931085814360773      24.123963222416808
  4489   1      35.167980735551666      1.1429772329246937      24.373989492119083
  4490   3      33.953567425569176      1.5858809106830123       23.65962872154115
  4491   1      34.260742556917691      1.4787267950963219      23.073852889667247
  4492   1      2.9788844133099821      33.160626970227675      9.5152854640980742
  4493   2      2.6859964973730297      33.867844133099823      9.3581260945709293
  4494   1      2.7002837127845885      34.289316987740797      10.029625218914186
  4495   1      3.1860490367775833      34.225024518388793      8.8580735551663743
  4496   2      1.6930350262697023      33.803551663747804      8.9437968476357259
  4497   1      1.7001786339754814      33.374935201401044      8.2794413309982495
  4498   1      1.2001260945709282       33.43922767075307      9.4509929947460591
  4499   3      1.3644290718038528      34.732220665499128      8.7580630472854644
  4500   1     0.74293520140105085      34.675071803852887      8.5008931698774077
  4501   1       0.450047285464098      9.9653327495621689      31.031831873905432
  4502   2     0.92866900175131351      9.3938441330998241       30.79609281961471
  4503   1      1.1858388791593695      9.0223765323992993      31.446161120840632
  4504   1     0.50005253940455352      8.8723607705779344      30.388907180385285
  4505   2      1.7430402802101574      9.7867425569176891      30.203173380035029
  4506   1      1.4644395796847633      10.165353765323994      29.567392294220664
  4507   1       2.157369527145359      10.315369527145359      30.624646234676007
  4508   3      2.3288161120840631      9.0223765323992993      29.931716287215412
  4509   1      2.8360122591943959      9.2795464098073541      29.567392294220664
  4510   1      1.3715726795096321      13.444269702276708      39.554155866900174
  4511   2     0.62149387040280202      13.287110332749563      39.425570928196144
  4512   1     0.40718563922942208      12.722765323992993      39.939910683012265
  4513   1     0.20002101576182135      13.930035026269701      39.604161120840622
  4514   2     0.46433450087565675      12.979935201401048      38.396891418563918
  4515   1     0.69292994746059544      13.551423817863395      37.903982486865154
  4516   1     0.89295096322241685      12.337010507880908      38.232588441331004
  4517   3      40.275660245183886      12.779914185639228      38.275450087565673
  4518   1       40.18993695271454      12.587036777583187      37.639669001751315
  4519   1      28.231537653239929      39.718458844133096       19.66635201401051
  4520   2      28.767308231173384      39.832756567425569      20.223553415061296
  4521   1      29.410232924693521      39.418427320490366      20.023532399299476
  4522   1      28.974472854640979      40.597122591943958      20.202122591943958
  4523   2      28.388697022767072      39.554155866900174      21.195084063047286
  4524   1      27.738628721541154      39.975628721541156      21.373674255691768
  4525   1      28.174388791593689      38.789789842381779      21.202227670753061
  4526   3      29.110201401050784      39.718458844133096      21.873726795096321
  4527   1      28.860175131348512      39.532725043782825      22.473789842381787
  4528   1      14.008614711033273       26.95997548161121      4.1004308231173372
  4529   2      13.987183887915936      27.052842381786338      3.3217775831873908
  4530   1      13.237105078809108      27.174283712784586      3.1217565674255687
  4531   1      14.387225919439576      27.710054290718038      3.1574746059544658
  4532   2      14.408656742556916      26.195609457092818      2.8217250437828367
  4533   1      15.158735551663746       26.07416812609457      3.0431768826619958
  4534   1      14.008614711033273      25.538397548161118      3.0074588441330996
  4535   3      14.365795096322241      26.359912434325743      1.8287635726795097
  4536   1      14.622964973730298      25.816998248686517      1.5287320490367775
  4537   1     0.88580735551663736      7.3007670753064797      7.9865534150612971
  4538   2      1.2358441330998249      7.8508248686514879      7.5579369527145355
  4539   1      1.0715411558668999      7.6936654991243421      6.8007145359019257
  4540   1     0.88580735551663736      8.5437548161120827      7.7222399299474596
  4541   2       2.293098073555166      7.8865429071803854      7.7508143607705771
  4542   1      2.4359702276707531      8.0437022767075295      8.5080367775831878
  4543   1      2.6359912434325743      7.1864693520140097      7.5793677758318729
  4544   3      2.7002837127845885      8.6080472854640995      7.1650385288966723
  4545   1      3.3574956217162861       8.615190893169876      7.2936234676006997
  4546   1      35.782330998248689      28.810169877408061      40.197080560420311
  4547   2      35.425150612959719      28.317260945709279      39.704171628721532
  4548   1       35.71803852889667      27.595756567425568      39.847043782837126
  4549   1      34.660784588441331      28.295830122591944      39.897049036777588
  4550   2      35.560879159369527      28.624436077057787       38.67549211908932
  4551   1      35.275134851138354      29.345940455341506      38.561194395796846
  4552   1      36.339532399299472      28.645866900175125      38.496901926444828
  4553   3      35.096544658493876      27.952936952714531      38.082572679509632
  4554   1      35.196555166374779       28.15295796847635      37.453935201401059
  4555   1      34.396471103327499         31.110411558669      29.410232924693521
  4556   2      33.739259194395792      30.710369527145357      29.560248686514878
  4557   1      33.639248686514883      30.203173380035029      28.960185639229426
  4558   1      33.867844133099823      30.281753064798597      30.203173380035029
  4559   2      32.896313485113836      31.374725043782835      29.681690017513137
  4560   1      33.024898423817866      31.881921190893173      30.274609457092822
  4561   1      32.789159369527148      31.810485113835377      29.024478108581434
  4562   3      32.081942206654986      30.817523642732045      29.860280210157612
  4563   1      31.567602451838873      31.246140105078805      29.931716287215412
  4564   1     0.95009982486865152      30.146024518388785       20.08068126094571
  4565   2      1.2715621716287213      30.767518388791601       19.72350087565674
  4566   1      0.6786427320490368       31.21042206654991      19.452043782837126
  4567   1      1.6430297723292469      31.188991243432572      20.273558669001755
  4568   2      1.9430612959719791        30.4531996497373      18.937704028021013
  4569   1      2.5216935201401052      29.996008756567424      19.230591943957965
  4570   1      1.5573064798598948      30.017439579684758      18.394789842381783
  4571   3      2.3288161120840631      31.274714535901925      18.509087565674257
  4572   1      2.7431453590192643      31.067549912434327       18.02332224168126
  4573   1      4.3576007005253938      14.437231173380034      9.6510140105078808
  4574   2      4.8505096322241688      13.880029772329245       9.879609457092819
  4575   1      4.7076374781085812      13.722870402802101      10.636831873905429
  4576   1      4.6790630472854646      13.229961471103328      9.4724238178633993
  4577   2      5.8791891418563926      14.187204903677758       9.715306479859894
  4578   1      6.0077740805604201      14.351507880910683      8.9580840630472842
  4579   1      6.0434921190893167      14.844416812609454      10.129635726795094
  4580   3      6.4792521891418566      13.437126094570926      10.022481611208407
  4581   1      7.1150332749562173      13.644290718038528      9.9153274956217157
  4582   1      13.244248686514885      36.782436077057795      14.572959719789841
  4583   2      12.858493870402802      37.303919439579687      14.137199649737303
  4584   1      12.101271453590192      37.282488616462352      14.365795096322241
  4585   1      13.129950963222417       38.01828021015762      14.322933450087563
  4586   2      12.972791593695272      37.089611208406303       13.07994570928196
  4587   1      13.730014010507878       37.10389842381786       12.87278108581436
  4588   1      12.694190893169877      36.368106830122592      12.915642732049037
  4589   3      12.451308231173378      37.782541155866902       12.56560595446585
  4590   1      12.529887915936952      37.632525394045537      11.915537653239928
  4591   1      25.624120840630475      14.887278458844133      35.489443082311737
  4592   2      25.081206654991242      15.251602451838876      35.060826619964978
  4593   1      25.366950963222422      15.958819614711034      34.867949211908936
  4594   1      24.995483362521892      14.844416812609454      34.389327495621707
  4595   2       24.14539404553415      15.323038528896671      35.596597197898426
  4596   1      23.873936952714537      14.608677758318739      35.796618213660246
  4597   1      24.245404553415057      15.730224168126092       36.27523992994746
  4598   3      23.481038528896672      15.801660245183887      35.010821366024508
  4599   1      22.909549912434322      15.844521891418564      35.360858143607707
  4600   1      34.967959719789839      18.830549912434325      6.2363695271453583
  4601   2      34.639353765323996      18.173338003502629      5.9720560420315225
  4602   1      34.889380035026271      18.073327495621715      5.2291208406304728
  4603   1      34.939385288966726      17.573274956217166       6.386385288966725
  4604   2      33.567812609457093      18.216199649737302      6.0434921190893167
  4605   1      33.339217162872146      18.323353765323994      6.7864273204903673
  4606   1       33.28206830122592      18.823406304728547      5.6148756567425568
  4607   3      33.189201401050788      17.351823117338004      5.6791681260945701
  4608   1      32.517702276707531      17.394684763572677       5.729173380035026
  4609   1      3.0931821366024517      29.474525394045536      6.4935394045534149
  4610   2      3.7432504378283715      29.381658493870404      6.9221558669001739
  4611   1      4.1861541155866897       30.02458318739054       6.822145359019264
  4612   1      3.5217985989492111       29.36737127845884      7.6793782837127837
  4613   2      4.2647338003502622      28.474420315236422      6.6506987740805608
  4614   1      3.8003992994746061       27.84578283712785      6.7435656742556906
  4615   1      4.4647548161120838      28.495851138353768      5.8791891418563926
  4616   3      5.0862486865148853      28.395840630472854      7.2221873905429073
  4617   1      5.4005674255691769      27.831495621716286       7.036453590192643
  4618   1      16.108835376532397      21.252232924693519      7.9365481611208404
  4619   2      16.623175131348511      21.002206654991237      8.4723187390542911
  4620   1      17.087509632224165      20.466436077057796      8.1222819614711046
  4621   1      17.080366024518391      21.616556917688264      8.6580525394045527
  4622   2      16.115978984238179      20.609308231173376      9.3366952714535909
  4623   1      15.651644483362519      21.152222416812609      9.6653012259194391
  4624   1      15.651644483362519      19.994957968476356      9.1366742556917657
  4625   3      16.816052539404549      20.302133099824868       9.993907180385289
  4626   1      16.487446584938699       20.05210683012259      10.529677758318739
  4627   1      19.409182136602453      31.989075306479858     0.77865323992994284
  4628   2      19.016283712784585       31.72476182136602      0.1571593695271504
  4629   1      18.273348511383531      31.589033274956218     0.39289842381785889
  4630   1      18.987709281961472      32.310537653239926       40.41853239929948
  4631   2      19.473474605954461      30.838954465849383      40.532830122591939
  4632   1      20.216409807355515      30.988970227670755      40.311378283712784
  4633   1      19.502049036777585      30.260322241681259     0.28574430823117236
  4634   3      18.923416812609457      30.538922942206657      39.747033274956216
  4635   1      19.223448336252183      29.981721541155867      39.497007005253941
  4636   1      6.7435656742556906      35.260847635726797      34.425045534150605
  4637   2      7.5007880910683014      35.403719789842384      34.267886164623469
  4638   1      7.7508143607705771      35.932346760070054      34.796513134851146
  4639   1      7.9008301225919437      34.739364273204906      34.403614711033271
  4640   2      7.6293730297723279      35.753756567425569      33.253493870402799
  4641   1      7.3579159369527138      35.217985989492114      32.739154115586686
  4642   1      7.2150437828371281      36.418112084063047      33.132052539404548
  4643   3      8.6080472854640995      35.925203152364276      33.103478108581442
  4644   1      8.6723397548161127      36.139511383537659      32.467697022767076
  4645   1      39.461288966725043     0.80722767075306479      18.187625218914185
  4646   2      40.018490367775833      1.0929719789842383      18.659103327495622
  4647   1      40.711420315236424      0.8286584938704028      18.394789842381783
  4648   1      40.025633975481611      1.8787688266199647      18.566236427320494
  4649   2      39.832756567425569     0.81437127845884416      19.687782837127841
  4650   1      39.132683012259193      1.0858283712784589      19.930665499124338
  4651   1      39.825612959719791     0.02857443082311734      19.766362521891413
  4652   3      40.568548161120837      1.2072697022767076      20.252127845884413
  4653   1      40.447106830122593      1.0215359019264447      20.887908931698774
  4654   1      32.260532399299471      4.9933817863397545      33.803551663747804
  4655   2      31.617607705779339      5.2148336252189145      34.189306479859894
  4656   1      31.367581436077053      4.5861961471103321      34.596492119089319
  4657   1      31.831915936952711      5.7577478108581444      34.717933450087557
  4658   2      30.867528896672496      5.5934448336252194      33.510663747810852
  4659   1      31.146129597197895      6.2077950963222417      33.103478108581442
  4660   1      30.667507880910684      5.0362434325744312       32.98203677758319
  4661   3      30.060301225919435      5.8577583187390534      34.053577933450086
  4662   1      29.603110332749559      6.0863537653239916      33.617817863397548
  4663   1      16.373148861646232      16.558882661996499      36.168085814360765
  4664   2      15.844521891418564      17.058935201401049      36.439542907180382
  4665   1      15.751654991243431      16.916063047285466      37.211052539404548
  4666   1      16.144553415061296      17.787583187390545      36.382394045534149
  4667   2      14.915852889667251      16.973211908931699      35.889485113835377
  4668   1      15.030150612959718      17.116084063047285      35.125119089316989
  4669   1      14.622964973730298      16.237420315236427      35.953777583187396
  4670   3      14.258640980735551      17.637567425569177       36.27523992994746
  4671   1      13.687152364273205      17.566131348511384      35.932346760070054
  4672   1      16.601744308231172      27.745772329246932      39.289842381786343
  4673   2      17.223238178633974      27.774346760070049      39.754176882662001
  4674   1      17.558987740805602      27.059985989492112      39.747033274956216
  4675   1       17.73757793345009      28.274399299474606      39.432714535901916
  4676   2      16.944637478108582      28.081521891418564      40.754281961471101
  4677   1      16.601744308231172      28.788739054290719      40.747138353765322
  4678   1      16.423154115586691      27.574325744308229     0.27860070052539082
  4679   3      17.780439579684764      28.102952714535903     0.52862697022767136
  4680   1        17.5947057793345      28.288686514886162      1.1501208406304819
  4681   1      22.145183887915938      8.2294360770577928      14.130056042031523
  4682   2      21.709423817863399      8.4437443082311745       13.52284938704028
  4683   1      21.502259194395794      7.7936760070052529      13.129950963222417
  4684   1      21.045068301225918      8.7580630472854644      13.815737302977231
  4685   2      22.238050788091069      9.1509614711033258      12.901355516637478
  4686   1      22.438071803852889      9.7938861646234692      13.308541155866898
  4687   1      22.902406304728547      8.8294991243432577      12.622754816112083
  4688   3      21.630844133099821      9.4009877408056024       12.12984588441331
  4689   1      21.973737302977234      9.8367478108581423      11.751234676007003
  4690   1      4.2504465849387039      3.2574851138353766      9.8224605954465858
  4691   2      5.0005253940455336      3.4146444833625216      9.6724448336252173
  4692   1      5.4362854640980736      3.0217460595446584      10.193928196147111
  4693   1      5.1648283712784586      3.1146129597197896      8.9580840630472842
  4694   2      5.1791155866900169      4.4790420315236421      9.7010192644483375
  4695   1      4.7290683012259196       4.857653239929947      9.1795359019264424
  4696   1      5.0005253940455336      4.7719299474605954      10.422523642732047
  4697   3      6.1577898423817858      4.6362014010507879      9.5081418563922924
  4698   1      6.2578003502626958      5.3005569176882652      9.5367162872154108
  4699   1      2.8145814360770576      38.204014010507876      4.7433555166374779
  4700   2      3.5075113835376528      38.111147110332752      4.4004623467600705
  4701   1      4.0575691768826614       38.11829071803853      4.9790945709281962
  4702   1      3.5217985989492111       37.38964273204904      4.0861436077057789
  4703   2      3.6861015761821365       38.87551313485114      3.6646707530647986
  4704   1      3.1289001751313479      38.861225919439576      3.1074693520140104
  4705   1      3.6646707530647986      39.597017513134851      4.0004203152364282
  4706   3      4.5933397548161121      38.718353765323997      3.2574851138353766
  4707   1      4.6933502626970229       39.20411908931699      2.8002942206654993
  4708   1      27.159996497373033      21.659418563922937       12.10841506129597
  4709   2      27.431453590192639      21.680849387040283      12.837063047285463
  4710   1      27.317155866900173       20.96648861646235      13.151381786339755
  4711   1      28.210106830122584      21.788003502626967      12.801345008756567
  4712   2      26.952831873905431      22.459502626970227      13.415695271453586
  4713   1      27.067129597197894      23.159576182136604       13.07994570928196
  4714   1      26.167035026269698      22.338061295971972      13.437126094570926
  4715   3      27.331443082311729      22.445215411558664      14.344364273204903
  4716   1      27.017124343257443      22.930980735551664      14.694401050788091
  4717   1      27.781490367775831      36.218091068301227      4.9005148861646237
  4718   2      28.367266199649738      35.989495621716287      4.4433239929947455
  4719   1      28.910180385288964      36.568127845884412      4.4576112084063046
  4720   1      28.703015761821366      35.360858143607707      4.7790735551663754
  4721   2      28.024373029772327      35.775187390542904      3.4432189141856395
  4722   1      27.474315236427319      35.210842381786343      3.4503625218914182
  4723   1      27.688623467600696      36.418112084063047      3.1217565674255687
  4724   3      28.817313485113832      35.496586690017516      2.8931611208406305
  4725   1      28.581574430823117      35.368001751313486      2.2716672504378286
  4726   1      17.766152364273207      9.2938336252189142      3.1217565674255687
  4727   2      18.051896672504377      8.5651856392294228      3.0788949211908929
  4728   1      17.930455341506129      8.3080157618213661      2.3431033274956219
  4729   1      18.837693520140107       8.615190893169876      3.1717618213660246
  4730   2      17.601849387040282      7.9222609457092821      3.8218301225919444
  4731   1      17.730434325744309      8.2080052539404562      4.5504781085814363
  4732   1      16.816052539404549      7.8865429071803854      3.7218196147110332
  4733   3      18.001891418563922      7.0078791593695264      3.7289632224168128
  4734   1       17.70900350262697      6.6149807355516641      4.1932977232924689
  4735   1       6.822145359019264      2.6145604203152364       24.03109632224168
  4736   2      6.4863957968476358      3.1574746059544658      24.474000000000004
  4737   1      6.6935604203152375      3.8646917688266198      24.188255691768823
  4738   1      5.7077425569176885      3.0931821366024517      24.381133099824861
  4739   2       6.772140105078809      3.0431768826619958      25.509823117338005
  4740   1      6.5721190893169874      2.3288161120840631      25.781280210157622
  4741   1      7.5579369527145355      3.1074693520140104      25.588402802101577
  4742   3      6.3149492119089317       3.764681260945709      26.045593695271453
  4743   1      6.5078266199649732      3.6789579684763569      26.688518388791593
  4744   1      5.0148126094570928      7.9222609457092821      5.2362644483362519
  4745   2      4.2861646234675996      7.6436602451838889      5.3362749562171627
  4746   1      4.3433134851138355      6.8578633975481598      5.3648493870402794
  4747   1      4.0432819614711031      7.8865429071803854      6.0506357267950959
  4748   2      3.6218091068301224      7.9865534150612971      4.5576217162872146
  4749   1      3.5932346760070049      8.7723502626970227      4.5361908931698762
  4750   1      3.8861225919439581      7.7436707530647979      3.8432609457092819
  4751   3      2.7074273204903672      7.6007985989492122      4.7290683012259196
  4752   1      2.3073852889667252       7.815106830122593      4.2361593695271456
  4753   1      21.573695271453591      38.589768826619967      1.6716042031523646
  4754   2      22.088035026269701      38.104003502626966      2.0073537653239932
  4755   1      21.780859894921189       37.37535551663747      1.9716357267950964
  4756   1      22.738103327495622      38.104003502626966      1.5644500875656739
  4757   2      22.295199649737302      38.404035026269703       3.028889667250438
  4758   1      22.588087565674254      39.132683012259193      3.0431768826619958
  4759   1      21.630844133099821      38.404035026269703      3.4575061295971974
  4760   3      22.952411558669002      37.746823117338003      3.4146444833625216
  4761   1      23.073852889667247      37.939700525394045      4.0504255691768822
  4762   1      33.460658493870405      35.282278458844132      4.8647968476357271
  4763   2      33.760690017513134      34.610779334500876      5.1362539404553402
  4764   1      34.432189141856398      34.475050788091067      4.7504991243432579
  4765   1      33.946423817863398      34.725077057793342      5.8934763572679509
  4766   2       33.05347285464098      33.796408056042033      5.0290998248686511
  4767   1       32.38197373029773      33.960711033274947      5.4077110332749552
  4768   1      32.867739054290716      33.696397548161116      4.2575901926444821
  4769   3      33.474945709281954      32.960605954465848      5.3862802101576186
  4770   1      33.024898423817866      32.467697022767076      5.3077005253940444
  4771   1      32.531989492119095      35.568022767075306      37.939700525394045
  4772   2      32.717723292469344      36.089506129597197       38.48975831873905
  4773   1      33.110621716287213      36.675281961471107      38.132577933450087
  4774   1      32.046224168126095      36.396681260945705      38.761215411558666
  4775   2      33.296355516637476      35.632315236427324      39.275555166374787
  4776   1      32.896313485113836      35.046539404553407      39.611304728546415
  4777   1      33.967854640980732      35.325140105078809      38.982667250437821
  4778   3      33.517807355516638      36.339532399299472      39.954197898423821
  4779   1      33.882131348511386       36.04664448336252      40.439963222416814
  4780   1      7.2793362521891414      24.474000000000004      30.446056042031518
  4781   2      7.1364640980735548       24.44542556917688      29.674546409807355
  4782   1      6.9435866900175123      25.181217162872155      29.453094570928201
  4783   1      7.8079632224168112      24.266835376532399      29.310222416812607
  4784   2      6.3578108581436075      23.731064798598947      29.453094570928201
  4785   1      6.5578318739054291      23.009560420315232      29.688833625218908
  4786   1      5.6863117338003502      23.923942206654988      29.831705779334502
  4787   3      6.2006514886164625        23.7453520140105      28.452989492119084
  4788   1      5.7077425569176885      23.295304728546405      28.331548161120843
  4789   1      14.558672504378283      15.523059544658492      8.6866269702276711
  4790   2      13.815737302977231      15.494485113835378       8.908078809106831
  4791   1      13.451413309982485      16.130266199649736      8.6080472854640995
  4792   1      13.487131348511381      14.865847635726793      8.5651856392294228
  4793   2      13.730014010507878      15.444479859894919       9.986763572679509
  4794   1      14.101481611208404      14.808698774080561      10.265364273204904
  4795   1       14.06576357267951      16.080260945709281      10.322513134851137
  4796   3       12.75133975481611      15.408761821366022      10.222502626970225
  4797   1      12.715621716287215      15.380187390542908      10.894001751313484
  4798   1      6.1077845884413318      33.696397548161116      13.487131348511381
  4799   2      5.8077530647985975      33.260637478108578      12.901355516637478
  4800   1      6.2292259194395792      32.596281961471099       12.87278108581436
  4801   1       5.071961471103327      33.060616462346758       13.10852014010508
  4802   2      5.8291838879159368      33.803551663747804      11.972686514886162
  4803   1      5.4148546409807343      34.475050788091067      12.022691768826622
  4804   1      6.5721190893169874      34.003572679509631      11.779809106830124
  4805   3      5.4434290718038527       33.21063222416813      11.251182136602452
  4806   1      5.4648598949211902      33.560669001751315      10.679693520140106
  4807   1      1.9502049036777587      10.158210157618212      34.025003502626966
  4808   2      2.4931190893169877       10.48681611208406      33.567812609457093
  4809   1      2.5645551663747805      11.244038528896672      33.789264448336255
  4810   1      3.1860490367775833      10.143922942206654      33.724971978984236
  4811   2      2.2359492119089315      10.393949211908932       32.52484588441331
  4812   1       2.157369527145359      9.6367267950963225      32.317681260945712
  4813   1      1.5358756567425567      10.743985989492119      32.374830122591945
  4814   3      2.9574535901926438      10.836852889667249      31.974788091068302
  4815   1      2.7788633975481614      10.772560420315237      31.331863397548158
  4816   1     0.51433975481611205      16.344574430823116      11.772665499124344
  4817   2      0.1643029772329247      16.601744308231172      12.422733800350262
  4818   1     0.10001050788091068      17.387541155866902      12.358441330998248
  4819   1      40.218511383537653      16.315999999999999      12.422733800350262
  4820   2     0.70721716287215408      16.308856392294221      13.308541155866898
  4821   1     0.77150963222416813      15.523059544658492      13.344259194395796
  4822   1      1.4430087565674257      16.601744308231172      13.287110332749563
  4823   3     0.22145183887915934      16.666036777583187      14.115768826619965
  4824   1     0.57148861646234683      16.473159369527146      14.651539404553414
  4825   1      19.744931698774078      1.3072802101576182      39.818469352014006
  4826   2       20.09496847635727      1.5215884413309979      40.482824868651491
  4827   1       19.53776707530648      1.7644711033274956     0.19287740805604889
  4828   1      20.416430823117334     0.87152014010507872    0.014287215411556352
  4829   2      20.845047285464094      2.2788108581436073      40.304234676007006
  4830   1      21.387961471103328      2.0216409807355515      39.797038528896671
  4831   1      20.509297723292466      2.9217355516637475      39.982772329246934
  4832   3      21.266520140105076      2.5216935201401052     0.40004203152364037
  4833   1      21.723711033274952      3.0003152364273205     0.27145709281961838
  4834   1      28.910180385288964      22.559513134851137       32.98203677758319
  4835   2      28.238681260945711      22.880975481611205      33.203488616462344
  4836   1      27.831495621716286      23.052422066549909      32.546276707530652
  4837   1      27.824352014010511      22.330917688266197      33.589243432574428
  4838   2      28.410127845884407      23.752495621716289      33.817838879159375
  4839   1      28.831600700525392      23.566761821366022      34.460763572679504
  4840   1      28.831600700525392      24.295409807355515      33.410653239929943
  4841   3      27.517176882661989       24.14539404553415      34.075008756567421
  4842   1      27.645761821366026       24.68830823117338      34.453619964973733
  4843   1      17.987604203152365      4.5861961471103321      12.408446584938703
  4844   2       17.43754640980735      4.5576217162872146      11.851245183887915
  4845   1      17.080366024518391      5.2576952714535903      11.836957968476357
  4846   1      17.801870402802102      4.4647548161120838      11.158315236427322
  4847   2      16.744616462346759      3.7503940455341507      12.044122591943957
  4848   1      17.123227670753064       3.057464098073555      12.072697022767075
  4849   1      16.394579684763574      3.8504045534150619       12.75133975481611
  4850   3      16.051686514886164      3.7503940455341507      11.315474605954465
  4851   1      15.623070052539402      3.2431978984238179      11.451203152364274
  4852   1      15.344469352014009      30.274609457092822      21.309381786339756
  4853   2      15.887383537653241      30.588928196147108      21.780859894921189
  4854   1      16.530308231173379       30.12459369527145      21.745141856392294
  4855   1      16.087404553415059        31.2818581436077      21.473684763572678
  4856   2      15.508772329246934       30.68179509632224      22.788108581436077
  4857   1      14.865847635726793      31.131842381786335      22.802395796847637
  4858   1      15.308751313485113      29.967434325744307      23.080996497373029
  4859   3      16.237420315236427      31.081837127845883      23.359597197898427
  4860   1      15.994537653239929      31.131842381786335      23.981091068301225
  4861   1      35.010821366024508      19.852085814360766      21.487971978984238
  4862   2      35.789474605954453       19.95209632224168      21.473684763572678
  4863   1      35.982352014010509      20.187835376532401      20.745036777583184
  4864   1       35.96092119089316      20.552159369527143      21.952306479859892
  4865   2      36.303814360770581      19.044858143607705      21.759429071803847
  4866   1      36.089506129597197      18.823406304728547      22.488077057793344
  4867   1      36.110936952714532      18.451938704028024      21.266520140105076
  4868   3      37.289632224168123      19.223448336252183      21.723711033274952
  4869   1      37.596807355516624      18.644816112084062      21.902301225919437
  4870   1      29.767413309982484      13.844311733800348      40.018490367775833
  4871   2      29.360227670753066      13.365690017513135      39.554155866900174
  4872   1      29.310222416812607       12.67276007005254      39.925623467600701
  4873   1      28.624436077057787      13.651434325744306      39.504150612959727
  4874   2      29.817418563922946      13.279966725043783      38.582625218914174
  4875   1      29.867423817863397      13.987183887915936      38.232588441331004
  4876   1      30.560353765323988      13.001366024518388        38.6469176882662
  4877   3      29.267360770577938        12.6513292469352      38.025423817863398
  4878   1      29.567392294220664      12.608467600700525      37.425360770577932
  4879   1      6.9221558669001739      30.574640980735555      25.295514886164618
  4880   2      6.9650175131348506      29.810274956217164      25.445530647985986
  4881   1      6.2363695271453583      29.517387040280202      25.374094570928197
  4882   1      7.4007775831873897      29.474525394045536      24.881185639229422
  4883   2      7.3864903677758322      29.624541155866897      26.424204903677754
  4884   1      8.1079947460595445       29.93885989492119      26.481353765323991
  4885   1      6.9435866900175123      29.974577933450078      26.988549912434326
  4886   3      7.4150647985989488      28.631579684763572      26.581364273204901
  4887   1      7.6722346760070046      28.538712784588444      27.195714535901928
  4888   1      40.147075306479863      28.781595446584934      16.787478108581436
  4889   2      39.925623467600701       28.07437828371279      17.023217162872154
  4890   1      39.139826619964971      28.045803852889673      16.980355516637474
  4891   1      40.197080560420311      27.552894921190894      16.501733800350262
  4892   2      40.282803852889671      27.867213660245181       18.02332224168126
  4893   1     0.27860070052539082      27.910075306479861      18.051896672504377
  4894   1      40.004203152364269      28.402984238178632      18.537661996497377
  4895   3      39.968485113835371      26.945688266199646      18.287635726795099
  4896   1      40.197080560420311      26.838534150612961      18.909129597197897
  4897   1      10.801134851138354      4.9790945709281962      14.201492119089316
  4898   2      10.779704028021014       5.622019264448336      13.765732049036776
  4899   1      10.172497373029771      6.0649229422066551      14.008614711033273
  4900   1      11.436915936952712      6.0363485113835376      13.915747810858143
  4901   2      10.708267950963224      5.3791366024518394      12.715621716287215
  4902   1      11.322618213660244      4.9290893169877394      12.487026269702275
  4903   1      10.051056042031524      4.9576637478108578      12.572749562171628
  4904   3      10.686837127845884      6.2363695271453583      12.186994746059542
  4905   1      10.636831873905429      6.0649229422066551      11.536926444833624
  4906   1      26.031306479859893      35.996639229422058      2.5216935201401052
  4907   2      25.638408056042032      36.560984238178641      2.8788739054290722
  4908   1      25.888434325744306      37.246770577933454      2.5788423817863397
  4909   1      24.881185639229422      36.496691768826615      2.6717092819614709
  4910   2      25.759849387040283      36.510978984238179      3.9504150612959719
  4911   1      25.509823117338005      35.818049036777587      4.2290157618213664
  4912   1       26.53135901926445      36.582415061295976      4.1432924693520139
  4913   3      25.238366024518385      37.268201401050781       4.364744308231173
  4914   1      25.331232924693516      37.225339754816112      5.0290998248686511
  4915   1      5.4791471103327485      27.252863397548161      18.951991243432577
  4916   2      5.3791366024518394      26.695661996497375      18.409077057793343
  4917   1      4.9433765323992995      27.009980735551661      17.830444833625219
  4918   1      6.0863537653239916      26.538502626970228      18.094758318739053
  4919   2      4.9219457092819603      25.816998248686517      18.830549912434325
  4920   1      5.3648493870402794      25.524110332749558      19.416325744308232
  4921   1      4.2075849387040281      25.995588441330995      19.144868651488618
  4922   3      4.8076479859894912      25.138355516637475      18.101901926444832
  4923   1      4.5147600700525397      24.595441330998248      18.380502626970227
  4924   1      7.7651015761821363      2.2788108581436073      32.139091068301219
  4925   2      7.4007775831873897      2.9645971978984229      32.089085814360772
  4926   1      7.1078896672504372      3.0217460595446584      31.360437828371278
  4927   1      6.7935709281961465       2.950309982486865      32.581994746059543
  4928   2      8.0794203152364279      3.7789684763572677      32.317681260945712
  4929   1      8.3723082311733794      3.6932451838879161      33.046329246935208
  4930   1      8.7009141856392294       3.771824868651489      31.817628721541155
  4931   3      7.5793677758318729      4.6433450087565671      32.239101576182136
  4932   1      8.0151278458844146      5.1362539404553402       32.38197373029773
  4933   1      14.558672504378283      21.345099824868651      19.680639229422066
  4934   2      14.551528896672501      21.645131348511381       18.96627845884413
  4935   1      14.144343257443081      22.316630472854644      18.994852889667246
  4936   1      15.294464098073554      21.845152364273204      18.787688266199648
  4937   2      14.144343257443081      20.952201401050786      18.244774080560418
  4938   1      14.565816112084061       20.28070227670753      18.237630472854644
  4939   1      13.401408056042028      20.759323992994748      18.444795096322242
  4940   3      14.151486865148863      21.387961471103328      17.337535901926444
  4941   1      13.894316987740803      20.945057793345008      16.908919439579687
  4942   1      6.0506357267950959      39.239837127845888      30.417481611208402
  4943   2      5.7577478108581444      39.918479859894923      30.167455341506127
  4944   1      4.9790945709281962      39.904192644483359      30.310327495621721
  4945   1      6.0577793345008759      40.489968476357269      30.624646234676007
  4946   2      5.9791996497373017      40.082782837127844      29.124488616462344
  4947   1       6.757852889667249      40.082782837127844      29.003047285464092
  4948   1      5.6720245183887918      39.497007005253941      28.681584938704024
  4949   3      5.5791576182136611     0.17144658493870435      28.853031523642731
  4950   1      5.7220297723292468     0.25716987740806441      28.195819614711031
  4951   1       30.59607180385289       13.83002451838879      4.6933502626970229
  4952   2      30.724656742556917      13.087089316987742      4.4933292469352013
  4953   1      30.188886164623462        12.8942119089317      3.9432714535901927
  4954   1      31.424730297723293      13.051371278458843      4.1361488616462339
  4955   2      30.674651488616458      12.429877408056042      5.3505621716287211
  4956   1       31.21042206654991      12.644185639229422      5.8863327495621718
  4957   1      29.960290718038525      12.479882661996498      5.6934553415061302
  4958   3      30.838954465849383      11.486921190893172      5.0362434325744312
  4959   1      30.803236427320495      11.094022767075305      5.5791576182136611
  4960   1       24.50257443082312       12.13698949211909      1.3644290718038528
  4961   2      24.481143607705778      11.544070052539405     0.85723292469351997
  4962   1       25.21693520140105       11.25832574430823     0.80008406304728541
  4963   1      24.038239929947462      10.972581436077057      1.1858388791593695
  4964   2      24.081101576182139      11.851245183887915      40.689989492119089
  4965   1      23.352453590192642      12.144133099824867      40.768569176882664
  4966   1      24.531148861646237      12.429877408056042      40.382814360770581
  4967   3      24.081101576182139       11.05116112084063      40.075639229422073
  4968   1      23.838218914185642       11.26546935201401      39.489863397548163
  4969   1      4.5576217162872146      40.182793345008754      17.651854640980737
  4970   2      4.0004203152364282      39.875618213660246      17.208950963222414
  4971   1      3.9146970227670757      39.118395796847629      17.430402802101575
  4972   1      3.3217775831873908      40.239942206654987       17.38039754816112
  4973   2      4.2433029772329247        39.9613415061296      16.158840630472856
  4974   1      4.3361698774080564      40.718563922942209      15.958819614711034
  4975   1      4.9290893169877394      39.589873905429073      16.001681260945713
  4976   3      3.5003677758318741      39.547012259194396      15.623070052539402
  4977   1      3.6718143607705778      39.604161120840622      14.973001751313486
  4978   1      35.853767075306479      28.395840630472854      23.552474605954465
  4979   2       36.28952714535901      28.981616462346761      23.281017513134849
  4980   1      36.218091068301227      28.988760070052539      22.495220665499126
  4981   1      35.975208406304731      29.660259194395795      23.538187390542905
  4982   2      37.318206654991243      28.881605954465847      23.595336252189139
  4983   1      37.368211908931698      28.867318739054294      24.381133099824861
  4984   1      37.625381786339759      28.195819614711031        23.3310227670753
  4985   3      37.839690017513135      29.653115586690017      23.223868651488615
  4986   1      38.482614711033264      29.574535901926446      23.423889667250439
  4987   1      10.608257443082312      34.667928196147109      10.236789842381787
  4988   2      10.743985989492119      35.325140105078809      9.8367478108581423
  4989   1      10.251077057793346      35.875197898423814      10.108204903677757
  4990   1      11.472633975481612      35.560879159369527      10.008194395796846
  4991   2      10.622544658493871       35.16083712784588      8.7723502626970227
  4992   1      11.115453590192645      34.596492119089319      8.5151803852889643
  4993   1      9.8867530647985991      34.910810858143606       8.615190893169876
  4994   3      10.801134851138354      36.025213660245186      8.2937285464098078
  4995   1         10.715411558669      35.910915936952712      7.6365166374781071
  4996   1      9.1009562171628726      7.5865113835376539       26.54564623467601
  4997   2      8.9795148861646226      7.2364746059544647       25.85985989492119
  4998   1      9.5367162872154108      6.6792732049036783        25.7884238178634
  4999   1      8.2865849387040278      6.8650070052539389      25.902721541155866
  5000   2      9.0009457092819609      7.9436917688266204      25.052632224168125
  5001   1       8.450887915936951      8.5008931698774077      25.145499124343257
  5002   1      9.7081628721541158      8.3223029772329244      25.024057793345008
  5003   3       8.850929947460596      7.4436392294220664      24.188255691768823
  5004   1      8.8723607705779344      7.9008301225919437      23.695346760070052
  5005   1      5.5577267950963227       30.68179509632224      18.601954465849381
  5006   2      6.1006409807355508      30.488917688266199      19.130581436077058
  5007   1      6.4006725043782833      29.788844133099822      18.916273204903678
  5008   1      6.6864168126094583      31.017544658493868      19.066288966725043
  5009   2      5.6863117338003502       30.46748686514886      20.123542907180386
  5010   1      5.3791366024518394       31.16756042031524      20.316420315236424
  5011   1      5.0933922942206653       29.93885989492119       20.16640455341506
  5012   3      6.4149597197898416      30.217460595446589      20.766467600700526
  5013   1      6.1435026269702266      30.203173380035029      21.380817863397549
  5014   1      9.5009982486865159      14.208635726795094      13.644290718038528
  5015   2      8.8152119089316994      14.230066549912435      13.265679509632225
  5016   1      8.6437653239929944      14.987288966725039      13.129950963222417
  5017   1      8.9295096322241676      13.894316987740803      12.558462346760068
  5018   2      8.0437022767075295      13.730014010507878      13.822880910683013
  5019   1      8.2365796847635728      12.972791593695272       13.95146584938704
  5020   1      7.9436917688266204      14.072907180385286      14.537241681260944
  5021   3      7.1864693520140097      13.787162872154115      13.294253940455341
  5022   1      6.7149912434325723      13.472844133099823      13.658577933450086
  5023   1      28.302973730297726      30.181742556917683      2.3931085814360773
  5024   2      27.945793345008756      29.603110332749559      2.0144973730297724
  5025   1      27.167140105078811      29.681690017513137      2.1502259194395794
  5026   1      28.052947460595444      29.724551663747807       1.242987740805604
  5027   2      28.317260945709279      28.638723292469354      2.3288161120840631
  5028   1      29.095914185639234      28.588718038528896      2.2002311733800353
  5029   1      28.202963222416809      28.538712784588444      3.1074693520140104
  5030   3      27.824352014010511      27.931506129597196       1.814476357267951
  5031   1      28.060091068301222      27.338586690017511      2.0216409807355515
  5032   1      21.473684763572678      21.780859894921189      19.987814360770578
  5033   2      21.387961471103328      21.559408056042027      20.730749562171631
  5034   1      21.445110332749561      20.773611208406301      20.752180385288966
  5035   1      22.002311733800351      21.838008756567426      21.137935201401046
  5036   2      20.445005253940451      21.909444833625219      21.130791593695275
  5037   1      20.402143607705778      22.695241681260946      21.095073555166369
  5038   1       19.83779859894921       21.62370052539405      20.709318739054289
  5039   3      20.380712784588439      21.595126094570926      22.088035026269701
  5040   1      19.787793345008755      21.816577933450088      22.323774080560419
  5041   1      26.581364273204901      33.803551663747804      8.4008826619964978
  5042   2      27.124278458844131      33.317786339754818      8.6866269702276711
  5043   1      26.795672504378281      32.603425569176885       8.729488616462346
  5044   1      27.710054290718038      33.274924693520141      8.1579999999999995
  5045   2      27.481458844133098      33.653535901926446      9.6510140105078808
  5046   1      27.795777583187387      34.375040280210158      9.5938651488616458
  5047   1      26.888539404553416      33.703541155866901      10.172497373029771
  5048   3      28.174388791593689      32.996323992994746      9.9796199649737307
  5049   1       28.38155341506129      33.217775831873901      10.579683012259196
  5050   1      33.453514886164619      14.165774080560421      37.039605954465848
  5051   2      33.039185639229423      14.480092819614713      37.625381786339759
  5052   1      33.089190893169871      15.265889667250439      37.553945709281955
  5053   1      32.281963222416813       14.28721541155867      37.518227670753063
  5054   2      33.403509632224171      14.137199649737303      38.589768826619967
  5055   1      33.360647985989495      13.351402802101576      38.632630472854643
  5056   1      34.167875656742552      14.337220665499123      38.682635726795098
  5057   3      32.853451838879153      14.565816112084061      39.304129597197893
  5058   1      33.089190893169871      14.351507880910683      39.897049036777588
  5059   1      20.552159369527143      17.416115586690019      29.345940455341506
  5060   2      20.673600700525391      16.737472854640977       29.71026444833625
  5061   1       20.62359544658494      16.165984238178634      29.174493870402799
  5062   1      21.416535901926448      16.737472854640977      29.974577933450078
  5063   2      19.973527145359018      16.601744308231172      30.524635726795093
  5064   1      20.030676007005255      17.180376532399297      31.046119089316985
  5065   1      19.230591943957965       16.60888791593695      30.246035026269706
  5066   3       20.16640455341506      15.708793345008756      30.960395796847635
  5067   1      19.716357267950958      15.637357267950962      31.460448336252185
  5068   1      14.715831873905428      26.581364273204901      34.510768826619966
  5069   2      14.465805604203153      25.945583187390543      34.132157618213654
  5070   1       14.06576357267951      26.188465849387036      33.503520140105081
  5071   1      15.108730297723294      25.574115586690016      33.860700525394051
  5072   2      13.880029772329245      25.309802101576182      34.775082311733804
  5073   1      14.294359019264448       25.08835026269702      35.410863397548155
  5074   1      13.244248686514885      25.702700525394043      35.046539404553407
  5075   3      13.587141856392293      24.509718038528899      34.246455341506127
  5076   1      13.215674255691768      24.123963222416808      34.660784588441331
  5077   1      11.222607705779332      3.2717723292469354      16.201702276707529
  5078   2      10.665406304728545       2.864586690017513      16.580313485113837
  5079   1      9.9796199649737307      3.2217670753064795      16.423154115586691
  5080   1      10.629688266199647      2.1502259194395794      16.251707530647987
  5081   2      10.872570928196147      2.8145814360770576      17.637567425569177
  5082   1      11.565500875656744      2.4645446584938697      17.773295971978982
  5083   1      10.908288966725044      3.5432294220665494      17.951886164623467
  5084   3      10.129635726795094       2.293098073555166      18.073327495621715
  5085   1      10.265364273204904      2.2716672504378286      18.730539404553415
  5086   1      7.7936760070052529      2.1002206654991245       28.07437828371279
  5087   2      8.5294676007005243      1.8501943957968474      28.060091068301222
  5088   1      8.5151803852889643      1.0715411558668999       28.15295796847635
  5089   1      8.8223555166374776       1.993066549912434      27.345730297723293
  5090   2      9.1152434325744291      2.3431033274956219      28.831600700525392
  5091   1      9.1080998248686509      3.1217565674255687      28.731590192644482
  5092   1      8.8080683012259211      2.1930875656742557      29.545961471103329
  5093   3      10.058199649737302      1.9859229422066551      28.781595446584934
  5094   1      10.408236427320491       2.293098073555166      29.267360770577938
  5095   1      16.373148861646232      7.7651015761821363      23.009560420315232
  5096   2      15.830234676007008      7.5007880910683014      23.509612959719789
  5097   1      15.137304728546411      7.8222504378283713      23.295304728546405
  5098   1      15.765942206654989      6.7221348511383541      23.409602451838879
  5099   2      16.094548161120841       7.757957968476358      24.531148861646237
  5100   1      16.787478108581436      7.4436392294220664      24.724026269702275
  5101   1      16.158840630472856      8.5437548161120827      24.609728546409801
  5102   3      15.373043782837128      7.4079211908931688      25.138355516637475
  5103   1      15.544490367775833      7.5722241681260947      25.766992994746058
  5104   1      35.625171628721546      7.7508143607705771        26.2027530647986
  5105   2      36.296670753064802       7.429352014010508      25.967014010507878
  5106   1      36.882446584938705      7.9008301225919437      26.209896672504378
  5107   1      36.382394045534149      6.7507092819614698      26.345625218914183
  5108   2      36.310957968476359      7.2936234676006997      24.895472854640982
  5109   1       35.71803852889667      6.8292889667250432      24.666877408056042
  5110   1      36.218091068301227      7.9865534150612971      24.524005253940455
  5111   3      37.196765323992999      6.8792942206654972      24.638302977232918
  5112   1      37.189621716287213      6.8078581436077048      23.973947460595447
  5113   1      37.568232924693525      15.873096322241681     0.54291418563923444
  5114   2       37.46107880910683      16.587457092819616     0.25002626970228292
  5115   1       36.71814360770577      16.808908931698774     0.42861646234675738
  5116   1      37.939700525394045      17.080366024518391     0.62863747810858539
  5117   2      37.639669001751315      16.594600700525394      39.975628721541156
  5118   1      38.375460595446583      16.366005253940454      39.811325744308228
  5119   1      37.153903677758315      16.094548161120841      39.604161120840622
  5120   3       37.48965323992995      17.530413309982489       39.63273555166375
  5121   1      37.596807355516624      17.523269702276703       38.97552364273205
  5122   1      22.702385288966727      39.454145359019265       26.40277408056042
  5123   2      23.073852889667247        39.9613415061296      26.859964973730289
  5124   1      22.659523642732051      40.632840630472849      26.845677758318736
  5125   1      23.030991243432577      39.689884413309983      27.602900175131346
  5126   2      24.095388791593695      40.104213660245179       26.54564623467601
  5127   1      24.488287215411557      39.425570928196144      26.559933450087566
  5128   1       24.11681961471103      40.375670753064803      25.795567425569175
  5129   3      24.524005253940455      40.775712784588443      27.167140105078811
  5130   1      25.159786339754817    0.064292469352017892      26.952831873905431
  5131   1      21.030781085814361      14.265784588441333      25.445530647985986
  5132   2      20.287845884413308      14.487236427320489      25.424099824868655
  5133   1      19.930665499124338      14.172917688266198      26.052737302977228
  5134   1      20.273558669001755      15.273033274956214      25.516966725043783
  5135   2      19.816367775831875      14.194348511383536      24.495430823117339
  5136   1      20.187835376532401      14.508667250437828      23.881080560420315
  5137   1       19.83779859894921      13.401408056042028      24.409707530647989
  5138   3       18.85198073555166      14.501523642732046      24.516861646234673
  5139   1      18.573380035026268      14.308646234676006      23.938229422066549
  5140   1      11.722660245183889      30.581784588441327      31.853346760070046
  5141   2      11.351192644483364      30.674651488616458      31.174704028021011
  5142   1      11.844101576182133      31.031831873905432      30.674651488616458
  5143   1      11.208320490367774      29.960290718038525      30.874672504378278
  5144   2      10.436810858143607      31.231852889667245       31.31043257443082
  5145   1      9.9510455341506123      30.860385288966729      31.817628721541155
  5146   1      10.586826619964972      31.946213660245188      31.617607705779339
  5147   3       9.986763572679509      31.331863397548158       30.41033800350262
  5148   1      9.4224185639229425      31.681900175131346      30.510348511383533
  5149   1      34.425045534150605      22.616661996497371      29.067339754816107
  5150   2      34.460763572679504       23.37388441330998       29.25307355516637
  5151   1      34.153588441330996      23.773926444833627      28.645866900175125
  5152   1      33.974998248686518      23.488182136602447      29.867423817863397
  5153   2      35.468012259194396      23.673915936952714      29.474525394045536
  5154   1      35.760900175131347      23.259586690017507      30.074588441330999
  5155   1       35.94663397548161      23.552474605954465      28.853031523642731
  5156   3      35.460868651488617       24.65973380035026      29.703120840630472
  5157   1      36.096649737302968      24.831180385288967      29.838849387040277
  5158   1      10.508246935201402      21.502259194395794      7.9436917688266204
  5159   2      10.629688266199647      20.816472854640981      8.3008721541155861
  5160   1      10.086774080560421       20.73789316987741      8.8580735551663743
  5161   1      10.493959719789844      20.244984238178635      7.7651015761821363
  5162   2      11.636936952714535      20.752180385288966      8.6937705779334511
  5163   1      12.165563922942207      20.845047285464094      8.1222819614711046
  5164   1      11.758378283712785      21.337956217162869      9.2223975481611209
  5165   3      11.744091068301223      19.859229422066548      9.1438178633975493
  5166   1      12.372728546409807       19.83779859894921      9.3867005253940459
  5167   1      36.153798598949209      18.587667250437828      6.2649439579684758
  5168   2      36.225234676006998      19.166299474605953      5.7506042031523652
  5169   1      36.625276707530645       18.88055516637478      5.1291103327495611
  5170   1      35.503730297723287      19.344889667250435      5.5005779334500877
  5171   2       36.71814360770577      20.023532399299476      6.1935078809106825
  5172   1      36.318101576182137       20.28070227670753       6.815001751313484
  5173   1      37.446791593695266      19.823511383537653      6.4506777583187391
  5174   3      36.789579684763567       20.73789316987741      5.4934343257443086
  5175   1       37.10389842381786      21.259376532399294      5.7791786339754818
  5176   1      23.873936952714537      7.0936024518388789      28.738733800350257
  5177   2      23.102427320490371      7.1793257443082306      28.703015761821366
  5178   1      22.788108581436077      6.4578213660245183      28.660154115586689
  5179   1      22.859544658493871      7.4936444833625195      29.388802101576182
  5180   2      22.816683012259194      7.8008196147110347      27.860070052539402
  5181   1      23.145288966725044      8.5080367775831878      27.917218914185639
  5182   1      23.066709281961472      7.4722136602451847      27.181427320490368
  5183   3      21.809434325744309       7.872255691768828      27.852926444833628
  5184   1      21.652274956217166      8.2580105078809094      27.324299474605954
  5185   1       19.66635201401051      3.6575271453590195      12.837063047285463
  5186   2       20.05210683012259      2.9860280210157613      12.765626970227668
  5187   1      19.909234676007003      2.7074273204903672      12.044122591943957
  5188   1      20.823616462346759      3.1574746059544658      12.794201401050788
  5189   2      19.773506129597198       2.293098073555166      13.544280210157618
  5190   1      19.923521891418563       2.593129597197898      14.258640980735551
  5191   1      18.994852889667246      2.1359387040280207      13.508562171628721
  5192   3      20.294989492119093      1.4430087565674257       13.40855166374781
  5193   1      20.109255691768826      1.0143922942206653      13.901460595446585
  5194   1      7.4079211908931688      35.889485113835377      22.888119089316987
  5195   2      7.3007670753064797      36.368106830122592      22.280912434325742
  5196   1      6.6221243432574424      36.160942206654994      21.938019264448336
  5197   1       7.200756567425568      37.096754816112082      22.559513134851137
  5198   2      8.1365691768826629      36.318101576182137      21.595126094570926
  5199   1      8.8080683012259211      36.518122591943964      21.959450087565671
  5200   1      8.2294360770577928      35.575166374781091      21.323669001751313
  5201   3      7.9508353765323987      36.939595446584939      20.830760070052541
  5202   1      8.4794623467600712      36.896733800350262       20.40928721541156
  5203   1       26.07416812609457      27.867213660245181      26.352768826619961
  5204   2      26.717092819614713      28.060091068301222      26.759954465849386
  5205   1      27.052842381786338      28.674441330998246       26.40277408056042
  5206   1      26.474210157618216      28.310117338003504      27.467171628721541
  5207   2      27.388591943957969      27.217145359019266      26.845677758318736
  5208   1      27.031411558668996      26.609938704028018      27.195714535901928
  5209   1      27.617187390542909      26.974262697022763      26.124173380035025
  5210   3      28.195819614711031      27.517176882661989      27.374304728546409
  5211   1      28.603005253940445      26.981406304728544      27.410022767075308
  5212   1       29.69597723292469      9.6795884413309992      2.3431033274956219
  5213   2       29.25307355516637      10.136779334500877      1.8930560420315237
  5214   1      28.610148861646231      10.329656742556917      2.3073852889667252
  5215   1      29.653115586690017      10.808278458844132      1.7716147110332747
  5216   2      29.010190893169874      9.6438704028021025      0.9572434325744309
  5217   1      29.667402802101574      9.4581366024518392     0.56434500875656746
  5218   1      28.617292469352012      8.9723712784588443      1.1001155866900176
  5219   3      28.438702276707531       10.27250788091068      0.4143292469352014
  5220   1      28.295830122591944      9.9510455341506123      40.632840630472856
  5221   1      30.060301225919435       3.057464098073555      26.067024518388791
  5222   2      30.224604203152364      3.7361068301225924      26.417061295971973
  5223   1      29.931716287215412      3.7003887915936948      27.145709281961469
  5224   1      31.003257443082308      3.7861120840630473      26.481353765323991
  5225   2      29.817418563922946      4.5719089316987747       25.85985989492119
  5226   1      30.110306479859894      4.5861961471103321      25.124068301225922
  5227   1      29.031621716287216      4.5076164623467605      25.795567425569175
  5228   3      30.053157618213657      5.4219982486865153      26.345625218914183
  5229   1      29.788844133099822      5.9291943957968458      25.995588441330995
  5230   1     0.27860070052539082      18.644816112084062      4.3790315236427322
  5231   2      40.347096322241683      18.930560420315231      4.4933292469352013
  5232   1      40.304234676007006      19.609203152364277       4.093287215411558
  5233   1      39.839900175131348      18.430507880910682      4.1575796847635722
  5234   2      40.147075306479863      19.059145359019265      5.5434395796847635
  5235   1      40.211367775831867       18.36621541155867      5.9291943957968458
  5236   1      40.668558669001747       19.55205429071804      5.8720455341506117
  5237   3      39.218406304728553      19.430612959719788      5.6434500875656735
  5238   1       39.10410858143608       19.50919264448336      6.3006619964973725
  5239   1      38.104003502626966      8.8795043782837144      12.665616462346758
  5240   2      38.518332749562163      9.3581260945709293      12.215569176882664
  5241   1      38.039711033274955       9.936758318739054      11.972686514886162
  5242   1      39.068390542907181      9.7010192644483375       12.67276007005254
  5243   2      38.968380035026271      8.8223555166374776      11.394054290718039
  5244   1      39.439858143607708      8.2508669001751311      11.658367775831874
  5245   1      38.411178633975481      8.4866059544658494      10.944007005253939
  5246   3      39.497007005253941      9.4795674255691775      10.836852889667249
  5247   1      39.761320490367773      9.1366742556917657      10.329656742556917
  5248   1      16.508877408056041      25.024057793345008      26.817103327495619
  5249   2      16.958924693520142      24.831180385288967      26.209896672504378
  5250   1      17.701859894921192      24.995483362521892       26.40277408056042
  5251   1      16.908919439579687      24.052527145359022       26.11702977232925
  5252   2      16.644605954465849      25.352663747810858       25.31694570928196
  5253   1      15.894527145359017      25.188360770577933      25.138355516637475
  5254   1      16.694611208406304      26.145604203152367      25.424099824868655
  5255   3       17.25181260945709      25.081206654991242      24.559723292469354
  5256   1      17.051791593695274       25.41695621716287      24.016809106830127
  5257   1      27.109991243432574      14.037189141856395      27.174283712784586
  5258   2      26.581364273204901      14.537241681260944      27.452884413309981
  5259   1      26.238471103327498      14.194348511383536       28.07437828371279
  5260   1      26.974262697022763      15.165879159369528      27.731485113835372
  5261   2      25.867003502626968      14.822985989492119      26.695661996497375
  5262   1      26.231327495621716      15.158735551663746      26.081311733800344
  5263   1      25.488392294220667      14.180061295971978      26.417061295971973
  5264   3      25.209791593695268      15.465910683012256      27.109991243432574
  5265   1       24.77403152364273      15.630213660245186      26.624225919439578
  5266   1      14.380082311733799      36.875302977232913      10.986868651488617
  5267   2      14.965858143607706      36.482404553415059      10.651119089316985
  5268   1      15.623070052539402      36.653851138353758       11.05116112084063
  5269   1      14.822985989492119      35.710894921190892      10.758273204903679
  5270   2      15.051581436077058      36.725287215411555      9.6010087565674258
  5271   1      14.380082311733799      36.560984238178641      9.2223975481611209
  5272   1      15.187309982486862      37.503940455341507      9.5081418563922924
  5273   3      15.815947460595446      36.196660245183892      9.2152539404553409
  5274   1      15.851665499124342      36.368106830122592      8.5580420315236427
  5275   1      39.682740805604205      28.981616462346761      4.0718563922942206
  5276   2      39.125539404553415      29.531674255691769       4.093287215411558
  5277   1      39.454145359019265      30.181742556917683      4.3933187390542914
  5278   1      38.932661996497373       29.69597723292469       3.350352014010507
  5279   2      38.275450087565673      29.195924693520134      4.6647758318739054
  5280   1      37.968274956217165      28.538712784588444      4.3504570928196147
  5281   1       38.48975831873905      29.024478108581434      5.4077110332749552
  5282   3       37.58966374781086      29.931716287215412      4.6719194395796837
  5283   1      37.068180385288969       29.71026444833625      5.0290998248686511
  5284   1      22.795252189141856      18.101901926444832      19.587772329246938
  5285   2      22.359492119089314      18.330497373029772      18.980565674255693
  5286   1      21.602269702276708      18.287635726795099       19.19487390542907
  5287   1      22.516651488616461      19.094863397548156      18.844837127845885
  5288   2      22.566656742556916      17.730434325744309      18.109045534150614
  5289   1        23.3310227670753      17.773295971978982      17.909024518388794
  5290   1      22.409497373029769      16.966068301225921        18.2519176882662
  5291   3      21.980880910683013      18.051896672504377      17.351823117338004
  5292   1      22.123753064798596      17.666141856392294      16.816052539404549
  5293   1      15.258746059544656      40.539973730297724      2.9288791593695267
  5294   2      14.737262697022768      40.232798598949209      3.4146444833625216
  5295   1      14.030045534150611      40.525686514886168      3.2217670753064795
  5296   1      14.708688266199651      39.461288966725043      3.2789159369527145
  5297   2      14.994432574430824      40.447106830122593      4.4433239929947455
  5298   1      15.701649737302976      40.161362521891419      4.6219141856392296
  5299   1      15.023007005253941      0.4429036777583204      4.5647653239929955
  5300   3       14.28721541155867      40.039921190893175      5.0362434325744312
  5301   1      14.458661996497373      40.182793345008754      5.6720245183887918
  5302   1      22.680954465849386      19.430612959719788      27.960080560420312
  5303   2      23.409602451838879      19.280597197898423      27.717197898423812
  5304   1      23.881080560420315        19.3234588441331      28.345835376532396
  5305   1      23.423889667250439      18.530518388791592      27.467171628721541
  5306   2      23.709633975481609      19.959239929947461      26.931401050788093
  5307   1      23.216725043782837      19.909234676007003      26.317050788091066
  5308   1      23.681059544658492      20.709318739054289       27.18857092819615
  5309   3        24.6454465849387      19.730644483362521      26.652800350262694
  5310   1      24.816893169877407       20.16640455341506      26.167035026269698
  5311   1      35.839479859894915      19.144868651488618      40.254229422066537
  5312   2      36.075218914185641       19.66635201401051      39.725602451838881
  5313   1      36.539553415061299      19.287740805604205       39.20411908931699
  5314   1      35.439437828371275      19.909234676007003      39.325560420315234
  5315   2      36.582415061295976      20.495010507880913      40.197080560420311
  5316   1      36.110936952714532       20.85219089316988      40.718563922942209
  5317   1      37.218196147110334      20.237840630472856      40.597122591943958
  5318   3      36.868159369527149      21.145078809106831      39.482719789842378
  5319   1      37.182478108581435      21.652274956217166      39.789894921190893
  5320   1      30.353189141856387      31.510453590192643      28.981616462346761
  5321   2      30.231747810858142       30.78180560420315      28.738733800350257
  5322   1      30.660364273204905      30.674651488616458      28.088665499124339
  5323   1      30.524635726795093      30.296040280210157      29.288791593695272
  5324   2      29.174493870402799      30.603215411558661      28.574430823117339
  5325   1      28.767308231173384      30.724656742556917      29.231642732049028
  5326   1      28.895893169877411      31.103267950963218      28.024373029772327
  5327   3      29.067339754816107      29.653115586690017      28.252968476357264
  5328   1      28.410127845884407      29.560248686514878       28.15295796847635
  5329   1      24.373989492119083      12.779914185639228      31.117555166374782
  5330   2       24.45971278458844       12.03697898423818      31.346150612959718
  5331   1      23.766782837127842      11.672654991243432      31.224709281961477
  5332   1      24.981196147110332      11.701229422066548      30.860385288966729
  5333   2      24.781175131348508      11.986973730297724      32.374830122591945
  5334   1      25.466961471103325       12.36558493870403      32.474840630472855
  5335   1      24.245404553415057       12.32986690017513      32.853451838879153
  5336   3       24.87404203152364      11.015443082311734       32.62485639229422
  5337   1      25.066919439579678      10.994012259194394      33.267781085814363
  5338   1      21.416535901926448       5.514865148861646      24.681164623467598
  5339   2      21.445110332749561      5.4934343257443086       25.45981786339755
  5340   1      20.716462346760068      5.3434185639229419      25.724131348511378
  5341   1      21.895157618213659      4.8790840630472854      25.659838879159366
  5342   2      21.838008756567426      6.4221033274956207       25.85985989492119
  5343   1      22.559513134851137      6.5649754816112083      25.574115586690016
  5344   1      21.380817863397549      7.0293099824868639      25.638408056042032
  5345   3      21.859439579684761      6.3506672504378283      26.859964973730289
  5346   1      22.102322241681261      6.9292994746059531      27.095704028021011
  5347   1      30.860385288966729      2.2716672504378286      9.6224395796847624
  5348   2       31.25328371278459      2.7860070052539401      10.051056042031524
  5349   1      31.853346760070046      2.4002521891418565      10.393949211908932
  5350   1      31.574746059544658      3.3074903677758321      9.5581471103327509
  5351   2       30.61035901926445      3.2717723292469354      10.772560420315237
  5352   1      30.017439579684758      3.6432399299474603      10.415380035026271
  5353   1      30.288896672504379      2.7288581436077055       11.26546935201401
  5354   3       31.16756042031524      3.9218406304728544      11.301187390542907
  5355   1      30.753231173380033      4.2147285464098072      11.751234676007003
  5356   1       31.92478283712785      20.223553415061296      4.3218826619964972
  5357   2      31.881921190893173       20.05210683012259      5.0862486865148853
  5358   1      31.203278458844139      20.344994746059541      5.3505621716287211
  5359   1      31.831915936952711      19.266309982486863      5.1433975481611194
  5360   2      32.739154115586686       20.43786164623468       5.622019264448336
  5361   1      33.410653239929943      20.144973730297725      5.3291313485113836
  5362   1       32.78201576182137      21.230802101576177      5.5434395796847635
  5363   3      32.631999999999998       20.19497898423818      6.5935499124343258
  5364   1      33.167770577933453      20.445005253940451      6.9150122591943948
  5365   1        19.9806707530648      36.296670753064802      21.559408056042027
  5366   2      20.637882661996493      36.118080560420317      21.180796847635726
  5367   1      21.209371278458843      36.582415061295976      21.466541155866896
  5368   1      20.830760070052541      35.375145359019257      21.366530647985986
  5369   2      20.509297723292466      36.239521891418562      20.116399299474605
  5370   1      19.930665499124338      35.775187390542904      19.852085814360766
  5371   1      20.316420315236424      36.989600700525394      19.937809106830123
  5372   3      21.380817863397549      35.996639229422058       19.66635201401051
  5373   1      21.287950963222418      36.082362521891426      19.001996497373032
  5374   1      15.423049036777581      13.294253940455341      33.617817863397548
  5375   2      15.465910683012256       12.65847285464098      33.160626970227675
  5376   1      15.880239929947457      12.115558669001752      33.553525394045536
  5377   1      14.730119089316984      12.372728546409807      33.089190893169871
  5378   2      15.894527145359017        12.8942119089317      32.203383537653238
  5379   1      15.473054290718038      13.444269702276708      31.831915936952711
  5380   1      16.630318739054289      13.187099824868652      32.289106830122591
  5381   3      15.930245183887914      12.051266199649739      31.653325744308233
  5382   1      16.208845884413311      12.208425569176882      31.060406304728545
  5383   1      29.031621716287216      3.4789369527145357      37.968274956217165
  5384   2      28.910180385288964      4.1290052539404547      38.375460595446583
  5385   1      29.381658493870404      4.6862066549912438      38.075429071803853
  5386   1      28.174388791593689       4.364744308231173       38.24687565674256
  5387   2      29.095914185639234      3.9718458844133102      39.425570928196144
  5388   1      28.624436077057787       3.407500875656742      39.711315236427318
  5389   1      29.845992994746062      3.7361068301225924      39.547012259194396
  5390   3      28.938754816112088      4.8433660245183887      39.911336252189137
  5391   1      29.060196147110325      4.7290683012259196      40.561404553415059
  5392   1      21.609413309982486       36.63242031523643      33.224919439579686
  5393   2      20.880765323992993      36.368106830122592      33.339217162872146
  5394   1      20.630739054290718      36.653851138353758      34.032147110332751
  5395   1      20.423574430823116      36.689569176882657       32.78201576182137
  5396   2       20.85219089316988      35.289422066549911      33.303499124343247
  5397   1      21.116504378283711      35.025108581436072      32.610569176882663
  5398   1      21.323669001751313      34.982246935201402      33.867844133099823
  5399   3      19.902091068301225      34.996534150612959      33.460658493870405
  5400   1      19.894947460595446      34.325035026269703       33.43922767075307
  5401   1      28.195819614711031      22.352348511383536      30.031726795096322
  5402   2      28.038660245183888      22.180901926444836      29.288791593695272
  5403   1      27.260007005253936      22.180901926444836      29.203068301225919
  5404   1      28.317260945709279      22.766677758318739      28.845887915936952
  5405   2      28.481563922942211      21.230802101576177      29.010190893169874
  5406   1      29.260217162872156      21.245089316987741      29.103057793345002
  5407   1      28.195819614711031      20.645026269702274       29.46738178633975
  5408   3      28.245824868651489      21.052211908931699      28.045803852889673
  5409   1      28.524425569176881      20.459292469352015      27.881500875656744
  5410   1      20.816472854640981       32.98203677758319      33.253493870402799
  5411   2      20.187835376532401      32.517702276707531      33.274924693520141
  5412   1      19.659208406304725      32.810590192644483      32.767728546409806
  5413   1      20.402143607705778      31.810485113835377      33.003467600700525
  5414   2      19.787793345008755      32.446266199649742      34.282173380035026
  5415   1      20.330707530647988       32.16766549912434      34.775082311733804
  5416   1      19.580628721541157      33.167770577933453      34.546486865148864
  5417   3      18.980565674255693      31.846203152364271      34.253598949211913
  5418   1      18.737683012259197      31.817628721541155      34.882236427320493
  5419   1      35.325140105078809      39.382709281961468      11.522639229422065
  5420   2      35.246560420315241      39.825612959719791      12.158420315236425
  5421   1      34.739364273204906      39.461288966725043      12.637042031523642
  5422   1      35.939490367775832      39.839900175131348      12.529887915936952
  5423   2      34.910810858143606    0.028574430823119383       11.89410683012259
  5424   1      35.425150612959719     0.37861120840630491      11.408341506129597
  5425   1      34.210737302977236  2.3815943988670842e-15      11.515495621716289
  5426   3      34.817943957968474      0.5643450087565699      12.744196147110333
  5427   1      34.603635726795098      1.1786952714535899       12.56560595446585
  5428   1      33.374935201401044      29.603110332749559      12.708478108581435
  5429   2       32.78201576182137      29.810274956217164      13.172812609457091
  5430   1      32.567707530647986      30.538922942206657      12.972791593695272
  5431   1       32.16766549912434      29.338796847635724      13.008509632224166
  5432   2       33.05347285464098      29.738838879159371      14.215779334500874
  5433   1      33.274924693520141      29.003047285464092      14.401513134851136
  5434   1      33.674966725043781      30.217460595446589      14.372938704028019
  5435   3      32.260532399299471      30.017439579684758      14.772980735551664
  5436   1       32.45340980735552      29.974577933450078      15.415905429071801
  5437   1      28.924467600700527      16.373148861646232      10.708267950963224
  5438   2      29.295935201401047      16.994642732049037      10.422523642732047
  5439   1      30.031726795096322      16.980355516637474      10.701124343257442
  5440   1      29.345940455341506      16.901775831873902      9.6367267950963225
  5441   2      28.774451838879152      17.909024518388794      10.679693520140106
  5442   1      28.038660245183888      17.901880910683008      10.401092819614709
  5443   1      28.731590192644482      17.987604203152365      11.472633975481612
  5444   3      29.288791593695272       18.68053415061296      10.293938704028021
  5445   1      28.960185639229426      19.244879159369525      10.465385288966726
  5446   1      28.045803852889673      6.0934973730297708      3.3717828371278453
  5447   2      27.960080560420312      5.4648598949211902      3.8218301225919444
  5448   1      27.295725043782838      5.1005359019264445      3.5860910683012257
  5449   1      28.552999999999997      4.9719509632224161      3.6575271453590195
  5450   2      27.938649737302978      5.7220297723292468      4.8647968476357271
  5451   1      28.603005253940445      6.0863537653239916      5.0791050788091061
  5452   1      27.338586690017511      6.2220823117338009      5.0148126094570928
  5453   3      27.817208406304722      4.8790840630472854      5.4005674255691769
  5454   1      27.802921190893169      5.0576742556917686      6.0506357267950959
  5455   1      38.268306479859895      26.974262697022763       26.73138003502627
  5456   2      38.254019264448338      27.517176882661989      26.167035026269698
  5457   1      38.046854640980733      27.152852889667251      25.495535901926441
  5458   1      37.675387040280214      28.024373029772327      26.338481611208405
  5459   2      39.211262697022768      28.017229422066546      26.088455341506133
  5460   1       39.40414010507881      28.360122591943956      26.767098073555161
  5461   1      39.782751313485115      27.495746059544661      25.917008756567427
  5462   3      39.146970227670757      28.703015761821366      25.352663747810858
  5463   1      39.747033274956216      28.995903677758321      25.309802101576182
  5464   1      36.682425569176878      18.951991243432577      15.265889667250439
  5465   2      36.518122591943964      19.694926444833627      15.094443082311731
  5466   1      35.925203152364276      19.687782837127841      14.572959719789841
  5467   1       36.24666549912434      20.037819614711033      15.751654991243431
  5468   2       37.38964273204904       20.20926619964974      14.715831873905428
  5469   1      37.975418563922943       20.19497898423818      15.237315236427317
  5470   1      37.653956217162872      19.852085814360766      14.058619964973728
  5471   3      37.125329246935202      21.159366024518391      14.501523642732046
  5472   1      37.675387040280214      21.466541155866896      14.258640980735551
  5473   1      21.830865148861644      24.381133099824861      23.766782837127842
  5474   2      21.409392294220666      24.859754816112083      23.323879159369522
  5475   1      20.709318739054289      24.959765323992997      23.681059544658492
  5476   1      21.766572679509633      25.566971978984235      23.316735551663747
  5477   2      21.295094570928192      24.466856392294222      22.316630472854644
  5478   1      22.002311733800351      24.366845884413308      21.980880910683013
  5479   1      20.937914185639233      23.759639229422064      22.338061295971972
  5480   3      20.745036777583184      25.116924693520136      21.788003502626967
  5481   1      20.680744308231169      24.859754816112083      21.166509632224166
  5482   1       6.822145359019264      20.294989492119093      15.873096322241681
  5483   2      7.3150542907180389       20.05210683012259      16.430297723292469
  5484   1      7.2221873905429073      19.266309982486863      16.501733800350262
  5485   1      8.0508458844133095      20.173548161120841      16.173127845884412
  5486   2      7.1293204903677756      20.566446584938703      17.358966725043778
  5487   1      7.2079001751313481      21.345099824868651       17.26609982486865
  5488   1      6.3792416812609458       20.43786164623468      17.608992994746057
  5489   3      7.7722451838879163      20.223553415061296      18.051896672504377
  5490   1      7.6436602451838889      20.552159369527143      18.623385288966727
  5491   1      20.259271453590188      22.216619964973724      17.973316987740805
  5492   2      19.894947460595446      22.845257443082307      18.273348511383531
  5493   1      20.302133099824868      23.481038528896672      18.059040280210159
  5494   1      19.187730297723292      22.895262697022766      17.930455341506129
  5495   2      19.802080560420311      22.759534150612961      19.352033274956217
  5496   1      19.402038528896675      22.109465849387043      19.544910683012258
  5497   1       20.52358493870403      22.702385288966727      19.680639229422066
  5498   3       19.33774605954466      23.581049036777586      19.687782837127841
  5499   1      19.287740805604205      23.523900175131349      20.359281961471105
  5500   1      15.458767075306479      8.2222924693520127      40.625697022767078
  5501   2      15.687362521891417      8.7580630472854644     0.35003677758318741
  5502   1      16.330287215411559      9.1080998248686509    0.050005253940455338
  5503   1      15.123017513134853      9.3081208406304725     0.38575481611208406
  5504   2      15.873096322241681      8.3151593695271444      1.3144238178633976
  5505   1      15.223028021015759       7.965122591943957      1.5930245183887917
  5506   1      16.437441330998251       7.757957968476358      1.2644185639229422
  5507   3      16.173127845884412      9.0509509632224159      1.9430612959719791
  5508   1      16.287425569176882      8.7580630472854644      2.5431243432574426
  5509   1       13.20138704028021      40.611409807355521      6.1792206654991242
  5510   2      12.529887915936952     0.20002101576182135      6.0577793345008759
  5511   1      12.058409807355515    0.050005253940455338      6.6792732049036783
  5512   1      12.679903677758317     0.97153064798598954      6.0649229422066551
  5513   2      12.079840630472853      40.682845884413311      5.1219667250437828
  5514   1       12.56560595446585    0.042861646234676004      4.5219036777583188
  5515   1      11.929824868651487      39.904192644483366      5.1291103327495611
  5516   3      11.215464098073555      0.4000420315236427      5.0076690017513137
  5517   1      10.944007005253939     0.20002101576182135      4.4290367775831871
  5518   1      23.259586690017507      3.1431873905429071        29.7959877408056
  5519   2      23.381028021015766      3.8932661996497369      29.967434325744307
  5520   1      24.123963222416808      4.0575691768826614      29.781700525394044
  5521   1      22.923837127845886      4.3218826619964972      29.488812609457092
  5522   2      23.159576182136604       4.093287215411558      31.003257443082308
  5523   1      22.409497373029769      3.9146970227670757      31.174704028021011
  5524   1       23.61676707530648      3.6503835376532399      31.474735551663745
  5525   3        23.3310227670753       5.071961471103327      31.181847635726797
  5526   1      23.195294220665499      5.1791155866900169      31.831915936952711
  5527   1       19.42346935201401      8.1008511383537645      16.230276707530646
  5528   2       19.86637302977233      7.7722451838879163      15.680218914185639
  5529   1      19.430612959719788      7.2221873905429073      15.323038528896671
  5530   1      20.023532399299476      8.3294465849387045      15.137304728546411
  5531   2      20.773611208406301       7.372203152364273      16.108835376532397
  5532   1      21.187940455341508      7.9365481611208404      16.466015761821367
  5533   1      20.602164623467601       6.822145359019264      16.651749562171624
  5534   3      21.316525394045534      6.9578739054290715      15.365900175131348
  5535   1      21.873726795096321      6.7078476357267931      15.644500875656743
  5536   1      34.767938704028026      34.117870402802097      19.487761821366025
  5537   2      34.453619964973733      34.710789842381786      19.087719789842382
  5538   1      34.632210157618211      34.603635726795098      18.330497373029772
  5539   1      33.674966725043781      34.667928196147109      19.159155866900175
  5540   2      34.832231173380038      35.660889667250437      19.459187390542908
  5541   1      34.660784588441331      35.746612959719783      20.223553415061296
  5542   1       35.61802802101576      35.689464098073557      19.387751313485115
  5543   3      34.410758318739056      36.396681260945705      18.909129597197897
  5544   1      34.653640980735553      36.975313485113837      19.144868651488618
  5545   1      12.608467600700525      33.574956217162871      20.930770577933451
  5546   2       12.34415411558669      34.246455341506127      20.645026269702274
  5547   1       12.86563747810858      34.810800350262703      20.837903677758312
  5548   1      12.351297723292467      34.189306479859894      19.859229422066548
  5549   2      11.351192644483364      34.467907180385289      21.016493870402805
  5550   1      10.851140105078809      33.889274956217164      20.823616462346759
  5551   1       11.35833625218914      34.517912434325744      21.809434325744309
  5552   3       11.05116112084063      35.346570928196151       20.62359544658494
  5553   1      10.436810858143607      35.468012259194396      20.866478108581429
  5554   1      16.923206654991244      8.6080472854640995      14.472949211908929
  5555   2        16.9374938704028      7.9508353765323987      14.901565674255691
  5556   1      16.201702276707529      7.6650910683012263      14.908709281961473
  5557   1       17.38039754816112      7.4222084063047271      14.522954465849386
  5558   2      17.308961471103327      8.1437127845884412      15.901670753064797
  5559   1       18.03760945709282      8.4366007005253945      15.873096322241681
  5560   1      16.851770577933451      8.6794833625218892      16.265994746059548
  5561   3      17.301817863397549      7.2793362521891414      16.408866900175134
  5562   1      17.530413309982489      7.4150647985989488      17.030360770577929
  5563   1      7.3936339754816114      31.803341506129595     0.42147285464098494
  5564   2      7.6508038528896654      32.096229422066557      40.532830122591939
  5565   1      7.9222609457092821      32.824877408056039      40.682845884413311
  5566   1      8.2651541155866894      31.660469352014015      40.304234676007006
  5567   2      6.8650070052539389      32.103373029772328      39.789894921190893
  5568   1      6.5935499124343258      31.374725043782835      39.661309982486863
  5569   1      6.2506567425569166      32.539133099824866      40.039921190893175
  5570   3      7.2364746059544647      32.496271453590197      38.939805604203151
  5571   1      6.7364220665499115      32.496271453590197       38.48975831873905
  5572   1      22.223763572679509      15.951676007005254      23.523900175131349
  5573   2      21.552264448336253      16.344574430823116      23.523900175131349
  5574   1      21.495115586690012      16.716042031523642      22.823826619964972
  5575   1       20.96648861646235      15.815947460595446      23.545330998248687
  5576   2      21.495115586690012      17.030360770577929      24.352558669001748
  5577   1      21.559408056042027      16.651749562171624      25.038345008756561
  5578   1      22.095178633975483      17.558987740805602      24.323984238178632
  5579   3      20.616451838879158      17.516126094570929      24.302553415061297
  5580   1      20.595021015761819      17.944742556917689      24.824036777583188
  5581   1      33.839269702276702      5.7220297723292468      12.179851138353765
  5582   2      33.553525394045536      5.6434500875656735      11.458346760070052
  5583   1      34.160732049036781      5.5220087565674252      10.972581436077057
  5584   1      33.117765323992998      4.9862381786339753      11.444059544658494
  5585   2      32.967749562171633      6.5078266199649732       11.17260245183888
  5586   1      32.374830122591945      6.6221243432574424      11.679798598949214
  5587   1      33.417796847635728      7.1650385288966723      11.201176882661997
  5588   3       32.62485639229422      6.3649544658493875      10.243933450087566
  5589   1       32.26767600700525      6.9150122591943948      10.079630472854641
  5590   1      36.360963222416807      25.138355516637475      14.437231173380034
  5591   2      35.696607705779336      25.338376532399298      14.072907180385286
  5592   1      35.110831873905425      24.959765323992997      14.444374781085815
  5593   1      35.582309982486862      26.109886164623461      14.187204903677758
  5594   2      35.739469352014005       25.08835026269702      13.022796847635727
  5595   1      36.339532399299472      25.466961471103325       12.67276007005254
  5596   1      35.860910683012257      24.309697022767075      12.922786339754817
  5597   3      34.867949211908936      25.359807355516633      12.601323992994745
  5598   1      34.903667250437827      25.195504378283715      11.951255691768827
  5599   1      16.180271453590194      15.323038528896671      11.008299474605955
  5600   2      15.515915936952716      14.937283712784589      10.872570928196147
  5601   1      15.401618213660248      14.430087565674256      11.465490367775832
  5602   1      14.922996497373031      15.458767075306479      10.901145359019264
  5603   2      15.544490367775833      14.437231173380034      9.9081838879159374
  5604   1      15.665931698774079      14.958714535901922      9.3295516637478109
  5605   1      16.144553415061296      13.922891418563925      9.8867530647985991
  5606   3      14.672970227670753       13.95860945709282      9.7795989492119073
  5607   1      14.708688266199651      13.651434325744306      9.1795359019264424
  5608   1      25.238366024518385      34.353609457092823      22.388066549912434
  5609   2      25.166929947460599      33.660679509632224      22.030886164623467
  5610   1      25.624120840630475      33.146339754816111      22.416640980735547
  5611   1      24.423994746059542      33.417796847635728      22.116609457092817
  5612   2      25.438387040280208      33.739259194395792      20.980775831873903
  5613   1      24.981196147110332      34.267886164623469      20.616451838879158
  5614   1      26.188465849387036      33.989285464098074      20.909339754816109
  5615   3      25.338376532399298      32.832021015761825      20.566446584938703
  5616   1      25.509823117338005      32.896313485113836      19.916378283712785
  5617   1      4.1432924693520139      11.208320490367774      5.7005989492119093
  5618   2      4.6862066549912438       11.26546935201401      5.1433975481611194
  5619   1      4.8219352014010513      10.536821366024517      4.8719404553415062
  5620   1       4.371887915936953      11.679798598949214      4.5504781085814363
  5621   2      5.5863012259194402      11.729803852889665      5.5291523642732043
  5622   1      5.4291418563922944      12.451308231173378      5.8077530647985975
  5623   1      5.8863327495621718      11.308330998248685      6.1292154115586683
  5624   3      6.2578003502626958      11.779809106830124      4.7790735551663754
  5625   1      6.8078581436077048      12.072697022767075      5.0290998248686511
  5626   1      10.765416812609455      16.901775831873902      26.124173380035025
  5627   2      10.422523642732047      17.080366024518391      26.802816112084056
  5628   1      9.7438809106830124      16.680323992994747      26.831390542907172
  5629   1      10.872570928196147      16.808908931698774      27.381448336252188
  5630   2      10.265364273204904       18.15190718038529      26.888539404553416
  5631   1      10.951150612959719      18.537661996497377      26.838534150612961
  5632   1      9.8081733800350275      18.409077057793343       26.28847635726795
  5633   3      9.8153169877408057      18.330497373029772      27.767203152364271
  5634   1      9.7224500875656741      18.994852889667246      27.802921190893169
  5635   1      13.251392294220667      33.889274956217164      2.0002101576182141
  5636   2      12.972791593695272      33.296355516637476      2.4359702276707531
  5637   1      12.215569176882664      33.196345008756566      2.2288056042031523
  5638   1      13.358546409807357      32.646287215411562      2.2216619964973727
  5639   2       13.07994570928196      33.496376532399303      3.4860805604203149
  5640   1      13.837168126094571      33.610674255691769      3.6718143607705778
  5641   1      12.694190893169877      34.160732049036781      3.6861015761821365
  5642   3      12.708478108581435      32.717723292469344      4.0004203152364282
  5643   1      12.779914185639228      32.860595446584938      4.6504886164623453
  5644   1      33.653535901926446       26.40277408056042      17.294674255691767
  5645   2      33.746402802101578      26.845677758318736      17.937598949211907
  5646   1      33.117765323992998      27.317155866900173      17.987604203152365
  5647   1      33.724971978984236      26.359912434325743      18.559092819614708
  5648   2      34.667928196147109      27.402879159369522      17.894737302977227
  5649   1      35.289422066549911      26.917113835376533      17.830444833625219
  5650   1      34.675071803852887      27.874357267950966      17.258956217162872
  5651   3      34.739364273204906      27.952936952714531      18.730539404553415
  5652   1      35.317996497373031      28.295830122591944      18.687677758318735
  5653   1      40.561404553415059      28.831600700525392      14.458661996497373
  5654   2   0.0071436077057748385      29.067339754816107      13.751444833625218
  5655   1      40.632840630472849      29.838849387040277      13.701439579684761
  5656   1     0.79294045534149682      28.995903677758321      13.722870402802101
  5657   2      40.318521891418563      28.488707530647986      12.972791593695272
  5658   1      40.482824868651491      27.724341506129591      13.051371278458843
  5659   1      39.525581436077061      28.567287215411561      13.022796847635727
  5660   3      40.639984238178634      28.838744308231167      12.086984238178633
  5661   1      40.332809106830119      28.474420315236422      11.608362521891419
  5662   1      32.303394045534148      21.495115586690012      37.296775831873909
  5663   2      33.032042031523638      21.530833625218911      37.568232924693525
  5664   1      33.517807355516638      21.387961471103328      36.968169877408059
  5665   1      33.160626970227675      22.280912434325742      37.796828371278465
  5666   2      33.182057793345002      20.845047285464094       38.38974781085814
  5667   1      32.682005253940446      20.995063047285466       38.97552364273205
  5668   1      33.039185639229423       20.09496847635727      38.146865148861643
  5669   3      34.132157618213654      20.923626970227669      38.704066549912433
  5670   1      34.210737302977236      20.487866900175131      39.211262697022768
  5671   1                       0      39.139826619964971      15.501628721541154
  5672   2     0.67149912434325743      38.796933450087565      15.701649737302976
  5673   1     0.62149387040280202      38.039711033274955      15.487341506129596
  5674   1       1.242987740805604      39.125539404553415      15.273033274956214
  5675   2     0.85723292469351997      38.904087565674253      16.766047285464097
  5676   1     0.89295096322241685      39.661309982486863      16.966068301225921
  5677   1     0.27145709281961472      38.568338003502625      17.187520140105079
  5678   3      1.7287530647985987      38.439753064798602      16.973211908931699
  5679   1      1.8359071803852889      38.511189141856391      17.637567425569177
  5680   1      27.067129597197894      38.525476357267948      39.082677758318731
  5681   2      26.702805604203153      38.954092819614715       39.63273555166375
  5682   1      27.245719789842383      39.418427320490366        39.9613415061296
  5683   1      26.195609457092818      39.425570928196144      39.261267950963223
  5684   2      26.209896672504378      38.325455341506135      40.354239929947461
  5685   1      25.674126094570926      37.861120840630463      39.997059544658498
  5686   1       26.73138003502627      37.846833625218913      40.711420315236424
  5687   3      25.759849387040283      38.911231173380024     0.24288266199649233
  5688   1       25.45981786339755      38.511189141856391      0.6857863397548194
  5689   1      25.638408056042032      21.766572679509633      7.1150332749562173
  5690   2      25.295514886164618      21.495115586690012       7.757957968476358
  5691   1      25.867003502626968      21.295094570928192      8.2651541155866894
  5692   1      24.895472854640982      22.095178633975483      8.0865639229422062
  5693   2        24.6454465849387      20.666457092819616       7.529362521891418
  5694   1      24.088245183887913      20.880765323992993      7.0150227670753056
  5695   1      25.059775831873903      20.073537653239931       7.193612959719788
  5696   3      24.223973730297722      20.344994746059541      8.3865954465849377
  5697   1      23.831075306479857      19.823511383537653      8.2294360770577928
  5698   1      3.9432714535901927      3.2360542907180383      13.701439579684761
  5699   2      4.2790210157618214      3.3360647985989491      14.401513134851136
  5700   1      4.9433765323992995      3.7503940455341507      14.294359019264448
  5701   1      3.8003992994746061      3.7789684763572677      14.837273204903678
  5702   2       4.471898423817863      2.3788213660245185      14.880134851138353
  5703   1      3.8003992994746061       1.978779334500876      14.965858143607706
  5704   1      4.9505201401050778      1.9359176882661995      14.422943957968476
  5705   3      4.9005148861646237      2.5574115586690018      15.765942206654989
  5706   1       5.021956217162872      1.9573485113835378      16.051686514886164
  5707   1      22.680954465849386      13.437126094570926      14.965858143607706
  5708   2      22.230907180385291      14.008614711033273      15.237315236427317
  5709   1      22.173758318739054      14.551528896672501      14.665826619964973
  5710   1      21.509402802101576      13.708583187390545      15.337325744308229
  5711   2      22.623805604203152      14.422943957968476      16.151697022767074
  5712   1      22.680954465849386      13.865742556917686      16.708898423817864
  5713   1      23.352453590192642      14.715831873905428      16.037399299474608
  5714   3      22.009455341506129      15.158735551663746      16.458872154115586
  5715   1      22.266625218914186      15.408761821366022      17.023217162872154
  5716   1      16.287425569176882      2.2430928196147111      4.7504991243432579
  5717   2      15.901670753064797      1.7073222416812608      4.3290262697022763
  5718   1      15.987394045534151      1.0143922942206653      4.7004938704028012
  5719   1      15.137304728546411      1.8859124343257445      4.3576007005253938
  5720   2      16.273138353765326      1.6716042031523646      3.3146339754816112
  5721   1      16.187415061295972      2.3716777583187389      2.9645971978984229
  5722   1      17.044647985989492      1.5001576182136602      3.3003467600700525
  5723   3      15.751654991243431     0.96438704028021027      2.8145814360770576
  5724   1      15.994537653239929      0.9572434325744309      2.1859439579684765
  5725   1      8.0865639229422062      16.208845884413311      37.775397548161116
  5726   2      8.1508563922942212      16.887488616462349       37.38964273204904
  5727   1      7.9008301225919437      17.458977232924692      37.868264448336255
  5728   1      8.9223660245183893      17.008929947460594       37.26105779334501
  5729   2      7.5936549912434312      16.858914185639229      36.460973730297717
  5730   1      7.8508248686514879      16.273138353765326      36.003782837127844
  5731   1       6.822145359019264      16.723185639229424      36.610989492119089
  5732   3      7.7079527145359004      17.744721541155869      36.003782837127844
  5733   1      7.3507723292469338      17.716147110332749      35.432294220665497
  5734   1      10.343943957968477      8.0294150612959729       4.307595446584938
  5735   2         10.715411558669      8.2222924693520127      3.6503835376532399
  5736   1      10.643975481611209      7.6079422066549904      3.1503309982486862
  5737   1      10.322513134851137      8.8223555166374776      3.3217775831873908
  5738   2      11.751234676007003      8.4723187390542911      3.8432609457092819
  5739   1       11.80123992994746      9.0795253940455343      4.3433134851138355
  5740   1       12.12984588441331       7.857968476357267      4.1718669001751305
  5741   3      12.179851138353765      8.7080577933450094      2.9645971978984229
  5742   1      12.822775831873905      8.8580735551663743      3.1003257443082313
  5743   1      37.818259194395793      10.858283712784589      7.6865218914185638
  5744   2      37.175334500875657      11.179746059544657      7.9936970227670754
  5745   1      37.068180385288969      11.879819614711032      7.6365166374781071
  5746   1      36.560984238178641      10.729698774080559      7.7865323992994737
  5747   2       37.26105779334501      11.272612959719789       9.065238178633976
  5748   1      37.368211908931698      10.565395796847637      9.3938441330998241
  5749   1      37.882551663747812      11.722660245183889      9.2581155866900176
  5750   3      36.410968476357269      11.694085814360772      9.4152749562171625
  5751   1      36.482404553415059      11.744091068301223      10.079630472854641
  5752   1      24.716882661996497     0.92152539404553413      2.4073957968476352
  5753   2         23.988234676007     0.70721716287215408      2.5788423817863397
  5754   1      24.016809106830127      40.747138353765322      2.8431558669001751
  5755   1      23.738208406304725       1.150120840630473      3.1789054290718037
  5756   2      23.345309982486864     0.80722767075306479      1.7144658493870399
  5757   1      23.338166374781085      1.5501628721541156      1.4572959719789842
  5758   1      23.609623467600702     0.35718038528896673      1.1144028021015762
  5759   3      22.416640980735547     0.51433975481611205      1.9716357267950964
  5760   1      22.030886164623467      0.5786322241681261      1.4287215411558669
  5761   1      21.816577933450088      11.022586690017514      3.6218091068301224
  5762   2      22.409497373029769      11.158315236427322      3.1360437828371275
  5763   1      22.880975481611205      11.694085814360772      3.4789369527145357
  5764   1      22.823826619964972      10.493959719789844      3.0717513134851133
  5765   2      22.052316987740802      11.486921190893172      2.1716567425569178
  5766   1      21.580838879159369      10.951150612959719      1.8430507880910683
  5767   1      21.630844133099821      12.158420315236425      2.2430928196147111
  5768   3      22.852401050788089      11.658367775831874      1.5787373029772329
  5769   1      22.616661996497371      11.865532399299473     0.98581786339754818
  5770   1      3.8932661996497369      9.7510245183887925      39.582730297723295
  5771   2      4.0147075306479865      9.1723922942206642      40.097070052539408
  5772   1      3.5217985989492111      8.5866164623467593      39.911336252189145
  5773   1      4.7504991243432579       8.900935201401051      39.989915936952713
  5774   2      3.8646917688266198      9.5224290718038525     0.32146234676006996
  5775   1      4.3576007005253938      10.115348511383537     0.48576532399299477
  5776   1      3.1289001751313479      9.7938861646234692      0.4143292469352014
  5777   3      4.0218511383537647      8.7437758318739061     0.95009982486865152
  5778   1      3.9218406304728544      8.9723712784588443      1.5715936952714535
  5779   1      30.431768826619962      37.089611208406303      37.096754816112082
  5780   2      30.717513134851135      36.639563922942202      36.525266199649742
  5781   1      31.489022767075312      36.782436077057795      36.475260945709287
  5782   1      30.631789842381789      35.889485113835377      36.739574430823119
  5783   2        30.2103169877408      36.846728546409814      35.589453590192647
  5784   1      29.438807355516644      36.710999999999999      35.653746059544659
  5785   1      30.296040280210157      37.611094570928195       35.38943257443082
  5786   3       30.61035901926445      36.253809106830126      34.882236427320493
  5787   1      30.288896672504379      36.396681260945705      34.303604203152361
  5788   1      36.096649737302968      31.503309982486861      16.616031523642732
  5789   2      35.810905429071802      31.117555166374782      17.230381786339752
  5790   1      36.003782837127844      30.353189141856387      17.137514886164624
  5791   1      36.189516637478107      31.374725043782835      17.866162872154113
  5792   2      34.739364273204906       31.25328371278459      17.316105078809105
  5793   1      34.567917688266199      32.017649737302975      17.387541155866902
  5794   1      34.375040280210158      30.996113835376534      16.658893169877409
  5795   3      34.417901926444827      30.738943957968473      18.116189141856392
  5796   1      33.753546409807356      30.831810858143601       18.15190718038529
  5797   1      33.110621716287213      9.3652697022767075      19.880660245183886
  5798   2      33.139196147110333      9.9510455341506123      19.359176882661998
  5799   1      32.546276707530652      10.443954465849387      19.523479859894923
  5800   1      33.810695271453589      10.351087565674256      19.487761821366025
  5801   2      33.089190893169871      9.5724343257443092      18.344784588441328
  5802   1      33.682110332749559      9.0723817863397525      18.209056042031524
  5803   1      32.417691768826622      9.1723922942206642      18.237630472854644
  5804   3      33.132052539404548      10.358231173380034      17.716147110332749
  5805   1      33.096334500875656      10.108204903677757      17.094653239929947
  5806   1      24.709739054290722      39.739889667250431      22.530938704028021
  5807   2      23.995378283712785      39.539868651488618      22.302343257443081
  5808   1       24.07395796847636       39.07553415061296      21.666562171628719
  5809   1      23.673915936952714      39.096964973730294      22.873831873905424
  5810   2      23.388171628721544      40.411388791593694      22.095178633975483
  5811   1        23.3310227670753    0.078579684763571855      22.738103327495622
  5812   1      23.723921190893172    0.064292469352017892      21.523690017513136
  5813   3      22.480933450087562      40.104213660245179      21.802290718038527
  5814   1      22.116609457092817      40.654271453590184      21.673705779334497
  5815   1      9.4224185639229425      2.4216830122591944      24.552579684763572
  5816   2      8.9580840630472842       1.978779334500876       24.11681961471103
  5817   1      9.0438073555166376      1.2287005253940453       24.35970227670753
  5818   1      8.2080052539404562      2.1788003502626969       24.27397898423818
  5819   2      9.1866795096322242      2.0930770577933449      23.066709281961472
  5820   1      9.1009562171628726      2.8431558669001751      22.845257443082307
  5821   1       9.936758318739054      1.8930560420315237      22.916693520140104
  5822   3      8.5651856392294228      1.5001576182136602      22.538082311733795
  5823   1      8.7223450087565677      1.5858809106830123      21.888014010507877
  5824   1      23.145288966725044      26.459922942206656      21.923732049036772
  5825   2      23.495325744308229      25.766992994746058      22.009455341506129
  5826   1      23.088140105078811      25.359807355516633      22.545225919439577
  5827   1      23.431033274956214      25.381238178633975      21.330812609457091
  5828   2      24.531148861646237      25.888434325744306      22.295199649737302
  5829   1      24.924047285464098      26.309907180385284      21.759429071803847
  5830   1       24.58829772329247       26.28847635726795      22.980985989492119
  5831   3      24.938334500875655       24.97405253940455      22.402353765323994
  5832   1      25.581259194395798      25.066919439579678      22.588087565674254
  5833   1      13.422838879159368       39.56129947460596      14.080050788091068
  5834   2      13.908604203152361      39.747033274956216      14.665826619964973
  5835   1      14.522954465849386      39.261267950963223      14.630108581436078
  5836   1      14.180061295971978      40.475681260945713      14.530098073555163
  5837   2      13.401408056042028      39.689884413309983      15.623070052539402
  5838   1      12.779914185639228      40.175649737302976      15.644500875656743
  5839   1      13.129950963222417      38.954092819614715      15.744511383537656
  5840   3       14.06576357267951      39.932767075306472      16.344574430823116
  5841   1       13.73715761821366      39.882761821366024      16.930350262697026
  5842   1      14.937283712784589      33.782120840630469      36.110936952714532
  5843   2      14.580103327495621      33.717828371278458      35.418007005253941
  5844   1      14.251497373029775      33.003467600700525      35.396576182136599
  5845   1      13.987183887915936      34.239311733800349      35.410863397548155
  5846   2      15.265889667250439      33.882131348511386      34.603635726795098
  5847   1      15.594495621716286      34.596492119089319      34.653640980735553
  5848   1      15.858809106830124      33.353504378283709      34.632210157618211
  5849   3      14.765837127845884      33.782120840630469      33.739259194395792
  5850   1      15.208740805604201      33.882131348511386      33.246350262697021
  5851   1      26.317050788091066      38.182583187390541      19.880660245183886
  5852   2      25.809854640980738      37.753966725043782      19.473474605954461
  5853   1      25.245509632224167      37.525371278458849      19.973527145359018
  5854   1       25.45981786339755      38.232588441331004      18.944847635726799
  5855   2      26.295619964973731      36.918164623467604      18.994852889667246
  5856   1      26.867108581436078      37.168190893169879      18.509087565674257
  5857   1      26.645656742556913      36.453830122591945       19.53776707530648
  5858   3      25.602690017513133      36.396681260945705      18.487656742556918
  5859   1      25.924152364273201      35.875197898423814      18.201912434325745
  5860   1      5.2505516637478094      5.3791366024518394      39.211262697022768
  5861   2      5.4648598949211902      5.4505726795096319      38.461183887915929
  5862   1      4.8933712784588446      5.1362539404553402       38.01828021015762
  5863   1      5.4934343257443086      6.2220823117338009      38.296880910683015
  5864   2      6.4221033274956207      4.9719509632224161      38.289737302977237
  5865   1      6.9793047285464098       5.293413309982486       38.74692819614711
  5866   1       6.386385288966725      4.2004413309982489      38.468327495621715
  5867   3      6.6578423817863399      5.0862486865148853      37.318206654991243
  5868   1       7.250761821366023      4.7862171628721546      37.225339754816112
  5869   1      31.146129597197895      2.9788844133099821      14.644395796847636
  5870   2      31.417586690017512      2.2502364273204902      14.730119089316984
  5871   1       30.92467775831874      1.7716147110332747      14.337220665499123
  5872   1      32.110516637478113      2.2073747810858144      14.358651488616461
  5873   2      31.503309982486861      1.9859229422066551      15.773085814360771
  5874   1      31.989075306479858      2.4716882661996498      16.144553415061296
  5875   1       30.79609281961471      2.0359281961471103      16.130266199649736
  5876   3      31.846203152364271      1.0358231173380035      15.823091068301226
  5877   1      31.889064798598945     0.88580735551663736      16.480302977232924
  5878   1      14.715831873905428      19.037714535901927      20.387856392294221
  5879   2      14.301502626970223      19.202017513134852      21.030781085814361
  5880   1      13.637147110332748      19.559197898423815      20.795042031523643
  5881   1      14.087194395796844      18.516231173380035      21.352243432574433
  5882   2      14.872991243432574      19.802080560420311      21.716567425569178
  5883   1      15.530203152364273      19.430612959719788      21.930875656742558
  5884   1      15.087299474605956      20.487866900175131      21.373674255691768
  5885   3      14.294359019264448      19.994957968476356      22.523795096322242
  5886   1      14.665826619964973      20.373569176882661      22.938124343257439
  5887   1      29.045908931698772      8.2651541155866894      4.1075744308231172
  5888   2      28.395840630472854       8.343733800350261      4.5361908931698762
  5889   1      28.374409807355516      7.7365271453590188      5.0433870402802103
  5890   1      28.467276707530651      9.0009457092819609       4.964807355516637
  5891   2      27.517176882661989      8.3723082311733794      3.9075534150612965
  5892   1      27.560038528896669      8.9723712784588443      3.3932136602451837
  5893   1      27.460028021015756      7.7079527145359004      3.4717933450087561
  5894   3      26.709949211908928      8.4651751313485128      4.4933292469352013
  5895   1      26.167035026269698      8.4794623467600712      4.0861436077057789
  5896   1      13.237105078809108      5.8791891418563926      2.2430928196147111
  5897   2      13.587141856392293      6.0220612959719784      2.9288791593695267
  5898   1      14.358651488616461       5.936338003502625      2.8145814360770576
  5899   1      13.458556917688266       6.772140105078809      3.1146129597197896
  5900   2      13.215674255691768      5.3577057793345002      3.7003887915936948
  5901   1       12.43702101576182      5.4434290718038527      3.7861120840630473
  5902   1      13.344259194395796      4.6004833625218922      3.4932241681260945
  5903   3      13.694295971978985       5.564870402802101      4.5576217162872146
  5904   1      13.458556917688266      5.1433975481611194       5.021956217162872
  5905   1      40.104213660245179      16.908919439579687      37.053893169877412
  5906   2      40.047064798598953      16.294569176882664      37.539658493870398
  5907   1      39.482719789842378      15.815947460595446      37.253914185639232
  5908   1      40.725707530647981      15.894527145359017      37.496796847635714
  5909   2      39.839900175131348       16.60888791593695       38.54690718038529
  5910   1      40.404245183887916      17.094653239929947      38.818364273204907
  5911   1      39.154113835376528      17.016073555166376       38.57548161120841
  5912   3      39.775607705779329      15.787373029772329      39.132683012259193
  5913   1      39.639879159369521      16.001681260945713      39.754176882662001
  5914   1      18.237630472854644      16.523164623467604      15.615926444833622
  5915   2      18.609098073555167      16.844626970227672      16.223133099824871
  5916   1      19.380607705779333      16.673180385288966      16.144553415061296
  5917   1      18.544805604203152       17.62328021015762      16.165984238178634
  5918   2      18.201912434325745      16.473159369527146      17.158945709281962
  5919   1       17.43754640980735      16.644605954465849      17.208950963222414
  5920   1      18.273348511383531      15.687362521891417      17.201807355516635
  5921   3      18.716252189141859      16.908919439579687      17.909024518388794
  5922   1      18.451938704028024      16.666036777583187       18.48051313485114
  5923   1      8.9366532399299459      12.487026269702275      15.358756567425567
  5924   2      8.8795043782837144      11.929824868651487      15.901670753064797
  5925   1      9.6081523642732041      11.772665499124344      16.158840630472856
  5926   1      8.4866059544658494      12.237000000000002      16.516021015761819
  5927   2      8.3865954465849377       11.05116112084063      15.515915936952716
  5928   1      7.6650910683012263      11.229751313485114      15.258746059544656
  5929   1      8.7866374781085828      10.758273204903679      14.894422066549911
  5930   3      8.3365901926444828      10.365374781085816      16.251707530647987
  5931   1      8.0365586690017512      9.8224605954465858      15.987394045534151
  5932   1      37.832546409807357      20.887908931698774       26.11702977232925
  5933   2      38.261162872154117       20.52358493870403      25.566971978984235
  5934   1      38.968380035026271      20.366425569176883      25.881290718038532
  5935   1       37.91826970227671      19.830654991243431      25.424099824868655
  5936   2      38.332598949211906      21.123647985989493      24.674021015761816
  5937   1      37.618238178633973      21.280807355516636      24.381133099824861
  5938   1       38.67549211908932      21.823721541155866      24.838323992994741
  5939   3      38.889800350262696       20.62359544658494      24.002521891418564
  5940   1      38.932661996497373      21.009350262697019      23.452464098073555
  5941   1      10.915432574430822      9.2581155866900176      22.752390542907179
  5942   2      11.036873905429072       9.936758318739054      22.395210157618212
  5943   1      10.415380035026271      10.401092819614709      22.545225919439577
  5944   1      11.658367775831874      10.279651488616462      22.730959719789844
  5945   2      11.186889667250439      9.8010297723292474      21.330812609457091
  5946   1       11.80838353765324      9.3295516637478109      21.202227670753061
  5947   1      10.551108581436079      9.4509929947460591      21.009350262697019
  5948   3      11.329761821366025      10.701124343257442      20.916483362521891
  5949   1      11.415485113835377       10.60111383537653      20.252127845884413
  5950   1      32.589138353765328      18.444795096322242      37.896838879159361
  5951   2      32.360542907180388      17.887593695271452      37.396786339754819
  5952   1      32.717723292469344      17.216094570928199      37.618238178633973
  5953   1       31.58188966725044      17.780439579684764      37.503940455341507
  5954   2      32.581994746059543      18.159050788091069       36.37525043782837
  5955   1       32.22481436077058      18.830549912434325      36.182373029772336
  5956   1      33.367791593695273      18.266204903677757      36.282383537653239
  5957   3      32.274819614711035      17.408971978984237      35.775187390542904
  5958   1      32.424835376532393      17.587562171628722      35.146549912434331
  5959   1      40.704276707530646      11.165458844133099      18.009035026269704
  5960   2     0.67149912434325743       11.35833625218914      17.959029772329245
  5961   1     0.80722767075306479       11.58693169877408      17.216094570928199
  5962   1     0.78579684763572677      11.986973730297724      18.416220665499122
  5963   2      1.3001366024518386      10.529677758318739      18.259061295971982
  5964   1      1.1429772329246937      10.315369527145359      18.994852889667246
  5965   1      1.1715516637478109      9.9010402802101556      17.794726795096324
  5966   3      2.2573800350262698       10.82256567425569      18.173338003502629
  5967   1      2.6359912434325743      10.293938704028021      18.359071803852885
  5968   1      23.209581436077055      4.7790735551663754       38.11829071803853
  5969   2      23.223868651488615      4.2433029772329247       37.56108931698774
  5970   1      23.981091068301225      4.0647127845884414      37.418217162872153
  5971   1      22.880975481611205      3.5932346760070049      37.846833625218913
  5972   2       22.71667250437828      4.5933397548161121      36.668138353765322
  5973   1      21.966593695271452      4.7790735551663754      36.832441330998243
  5974   1      23.066709281961472      5.2505516637478094      36.396681260945705
  5975   3      22.759534150612961       3.871835376532399      35.975208406304731
  5976   1      22.445215411558664      4.1075744308231172      35.425150612959719
  5977   1      36.268096322241682     0.17144658493870435      4.9433765323992995
  5978   2      35.689464098073557      40.454250437828371      5.0933922942206653
  5979   1      35.368001751313486      40.247085814360773      4.4076059544658497
  5980   1      36.018070052539407      39.804182136602449      5.3934238178633978
  5981   2      34.967959719789839    0.092866900175134895      5.7720350262697027
  5982   1      35.310852889667245     0.30003152364272634      6.4506777583187391
  5983   1      34.653640980735553     0.75007880910683489       5.457716287215411
  5984   3      34.246455341506127      40.204224168126096       5.936338003502625
  5985   1      33.803551663747804      40.489968476357269      6.3578108581436075
  5986   1      38.111147110332752      17.458977232924692      28.910180385288964
  5987   2      38.782646234676015      17.294674255691767      29.267360770577938
  5988   1      38.754071803852881      16.544595446584935      29.495956217162863
  5989   1      39.354134851138355      17.351823117338004      28.731590192644482
  5990   2      38.954092819614715      17.973316987740805      30.096019264448334
  5991   1      38.968380035026271      18.716252189141859      29.853136602451844
  5992   1      38.368316987740812      17.909024518388794      30.631789842381789
  5993   3      39.832756567425569      17.723290718038527      30.524635726795093
  5994   1      39.925623467600701      18.144763572679505      31.046119089316985
  5995   1      31.074693520140102      39.361278458844133      21.845152364273204
  5996   2      30.910390542907177      39.089821366024516      21.130791593695275
  5997   1      30.360332749562168      39.568443082311738      20.816472854640981
  5998   1      31.553315236427323      39.168401050788091      20.687887915936955
  5999   2      30.574640980735555      38.061141856392297      21.173653239929944
  6000   1      31.131842381786335       37.60395096322241      21.495115586690012
  6001   1       29.92457267950963      37.996849387040271      21.630844133099821
  6002   3      30.367476357267954       37.76111033274956      20.237840630472856
  6003   1      30.160311733800352      37.118185639229416       20.28070227670753
  6004   1      17.473264448336252      5.3434185639229419      35.017964973730301
  6005   2      17.108940455341507      6.0077740805604201      35.217985989492114
  6006   1      17.466120840630474      6.5935499124343258      34.825087565674252
  6007   1      16.373148861646232      5.9649124343257434      34.946528896672504
  6008   2      17.137514886164624      6.1577898423817858       36.28952714535901
  6009   1      16.787478108581436      5.5577267950963227      36.660994746059544
  6010   1      17.887593695271452      6.1935078809106825      36.546697022767063
  6011   3      16.666036777583187      7.0221663747810847      36.489548161120837
  6012   1      16.687467600700522      7.1078896672504372      37.161047285464093
  6013   1      13.337115586690018      9.5867215411558675      39.704171628721532
  6014   2      13.794306479859896       9.986763572679509      39.211262697022768
  6015   1      13.815737302977231      10.736842381786339      39.461288966725043
  6016   1      14.522954465849386      9.7010192644483375      39.282698774080558
  6017   2      13.429982486865145      9.9081838879159374      38.196870402802105
  6018   1      13.401408056042028      9.1509614711033258      37.968274956217165
  6019   1      12.687047285464098      10.193928196147111      38.146865148861643
  6020   3      14.044332749562169      10.436810858143607       37.60395096322241
  6021   1      13.801450087565673      10.379661996497374      36.975313485113837
  6022   1      19.773506129597198      20.487866900175131      25.838429071803855
  6023   2      20.337851138353766      21.002206654991237      26.002732049036776
  6024   1      20.009245183887916      21.716567425569178      26.024162872154111
  6025   1      20.602164623467601      20.845047285464094       26.73138003502627
  6026   2      21.137935201401046      20.937914185639233      25.274084063047283
  6027   1      21.445110332749561       20.20926619964974      25.259796847635727
  6028   1      20.859334500875658      21.087929947460594       24.54543607705779
  6029   3      21.838008756567426      21.616556917688264      25.516966725043783
  6030   1      22.323774080560419      21.566551663747809      25.052632224168125
  6031   1      3.4217880910683012      32.060511383537659      37.711105078809105
  6032   2      3.8003992994746061      32.310537653239926      37.075323992994754
  6033   1      4.3504570928196147      32.817733800350268      37.311063047285458
  6034   1      4.1718669001751305      31.689043782837128      36.761005253940453
  6035   2      3.1074693520140104      32.753441330998243      36.368106830122592
  6036   1      2.5574115586690018      32.239101576182136      36.153798598949209
  6037   1      2.7360017513134847      33.374935201401044      36.696712784588442
  6038   3      3.6360963222416811      33.060616462346758      35.568022767075306
  6039   1      3.2003362521891416      33.339217162872146      35.139406304728546
  6040   1      34.017859894921187       12.67276007005254     0.37146760070052542
  6041   2      34.625066549912439      12.451308231173378     0.80722767075306479
  6042   1      34.953672504378282      11.829814360770575     0.45719089316987743
  6043   1       35.16083712784588      13.037084063047285     0.77865323992994739
  6044   2      34.325035026269703      12.244143607705778      1.8216199649737301
  6045   1      33.989285464098074       12.87278108581436      2.1502259194395794
  6046   1      33.789264448336255      11.658367775831874      1.8359071803852889
  6047   3      35.139406304728546      11.958399299474603      2.3431033274956219
  6048   1      34.939385288966726      11.829814360770575      2.9645971978984229
  6049   1      13.351402802101576      39.539868651488618      8.8294991243432577
  6050   2       13.73715761821366      39.011241681260948      9.2509719789842375
  6051   1      13.451413309982485      38.304024518388793      9.0580945709281959
  6052   1      14.487236427320489      39.025528896672505      9.0223765323992993
  6053   2      13.637147110332748      39.211262697022768      10.308225919439579
  6054   1      13.915747810858143      39.925623467600701       10.48681611208406
  6055   1       12.87278108581436       39.20411908931699      10.522534150612959
  6056   3      14.144343257443081      38.504045534150613       10.81542206654991
  6057   1       14.06576357267951      38.639774080560422      11.472633975481612
  6058   1      12.694190893169877      29.274504378283709      19.294884413309983
  6059   2       12.46559544658494      29.981721541155867      19.523479859894923
  6060   1      13.115663747810858      30.417481611208402      19.637777583187393
  6061   1      12.065553415061297      30.310327495621721      18.930560420315231
  6062   2      11.858388791593692       29.92457267950963      20.416430823117334
  6063   1      11.215464098073555       29.48166900175131      20.294989492119093
  6064   1      12.265574430823118      29.588823117338006      21.009350262697019
  6065   3       11.58693169877408      30.860385288966729      20.673600700525391
  6066   1      11.215464098073555      30.810380035026263      21.237945709281959
  6067   1       30.02458318739054      17.558987740805602      33.982141856392289
  6068   2       29.93885989492119      18.223343257443084      34.389327495621707
  6069   1      30.638933450087567      18.587667250437828      34.396471103327499
  6070   1      29.445950963222415       18.68053415061296      33.974998248686518
  6071   2      29.560248686514878      18.030465849387042      35.382288966725042
  6072   1      28.867318739054294      17.651854640980737      35.353714535901922
  6073   1      30.060301225919435      17.558987740805602      35.782330998248689
  6074   3       29.46738178633975      18.909129597197897      35.860910683012257
  6075   1      29.238786339754814      18.773401050788092      36.475260945709287
  6076   1      16.315999999999999      22.730959719789844       4.471898423817863
  6077   2      16.780334500875657      22.280912434325742      4.0361383537653239
  6078   1      17.523269702276703      22.402353765323994      4.2790210157618214
  6079   1       16.60888791593695      21.523690017513136      4.2004413309982489
  6080   2      16.651749562171624      22.495220665499126      2.9860280210157613
  6081   1      15.901670753064797      22.373779334500878      2.7645761821366022
  6082   1      16.823196147110334      23.252443082311732      2.8360122591943959
  6083   3      17.273243432574432      21.895157618213659      2.4645446584938697
  6084   1      17.180376532399297      22.045173380035028       1.814476357267951
  6085   1      36.446686514886167      19.387751313485115      33.624961471103326
  6086   2      36.882446584938705      19.044858143607705      34.182162872154116
  6087   1      36.660994746059544      19.359176882661998        34.8750928196147
  6088   1      36.696712784588442       18.28049211908932      34.203593695271451
  6089   2      37.939700525394045       19.19487390542907      33.996429071803853
  6090   1      38.139721541155865      18.887698774080558      33.296355516637476
  6091   1      38.111147110332752      19.966383537653236      33.967854640980732
  6092   3      38.454040280210158      18.744826619964975      34.732220665499128
  6093   1       39.10410858143608      18.844837127845885      34.603635726795098
  6094   1      20.809329246935196      26.474210157618216      40.054208406304731
  6095   2      20.316420315236424      26.967119089316984      39.711315236427318
  6096   1      19.594915936952713      26.645656742556913      39.739889667250431
  6097   1      20.287845884413308      27.624330998248688      40.147075306479863
  6098   2       20.62359544658494      27.181427320490368      38.696922942206655
  6099   1      21.345099824868651      27.495746059544661      38.682635726795098
  6100   1      20.645026269702274      26.509928196147108      38.268306479859895
  6101   3       19.95209632224168      27.810064798598948      38.289737302977237
  6102   1      20.152117338003503      27.931506129597196      37.653956217162872
  6103   1      4.6862066549912438      35.546591943957964      18.973422066549912
  6104   2      4.7576427320490371      35.625171628721546      19.752075306479863
  6105   1      4.0361383537653239      35.532304728546414      20.059250437828371
  6106   1      5.1934028021015752      35.017964973730301      20.009245183887916
  6107   2      5.2005464098073544      36.575271453590197      20.009245183887916
  6108   1      5.9149071803852875      36.646707530647987      19.680639229422066
  6109   1      4.7504991243432579      37.175334500875657        19.7377880910683
  6110   3      5.2648388791593694      36.625276707530645      21.009350262697019
  6111   1      5.5434395796847635      37.225339754816112      21.159366024518391
  6112   1      30.624646234676007      33.667823117337996      9.3366952714535909
  6113   2      29.981721541155867      33.760690017513134      9.7653117338003508
  6114   1      29.617397548161122      34.417901926444827      9.5009982486865159
  6115   1      29.495956217162863      33.160626970227675      9.6081523642732041
  6116   2      30.217460595446589      33.824982486865153       10.81542206654991
  6117   1      30.581784588441327      33.167770577933453      11.058304728546409
  6118   1      30.710369527145357      34.432189141856398      10.958294220665497
  6119   3      29.360227670753066      33.953567425569176      11.322618213660244
  6120   1      29.517387040280202      33.996429071803853      11.972686514886162
  6121   1      16.666036777583187      18.744826619964975      16.966068301225921
  6122   2      16.744616462346759      19.444900175131348      17.301817863397549
  6123   1      17.308961471103327      19.380607705779333      17.851875656742553
  6124   1      17.016073555166376      19.944952714535901      16.758903677758319
  6125   2      15.808803852889669       19.78064973730298      17.723290718038527
  6126   1      15.258746059544656      19.830654991243431      17.158945709281962
  6127   1      15.544490367775833      19.273453590192645      18.266204903677757
  6128   3      15.958819614711034      20.687887915936955      18.144763572679505
  6129   1      15.365900175131348      20.880765323992993      18.401933450087569
  6130   1      23.973947460595447      34.103583187390548       36.94673905429071
  6131   2      23.866793345008755      34.032147110332751      37.711105078809105
  6132   1       23.27387390542907      34.525056042031522      37.911126094570925
  6133   1      23.609623467600702      33.303499124343247      37.853977232924699
  6134   2       24.77403152364273      34.246455341506127      38.254019264448338
  6135   1      25.352663747810858      33.753546409807356      38.039711033274955
  6136   1      25.024057793345008      34.982246935201402      38.104003502626966
  6137   3      24.581154115586685      34.153588441330996      39.239837127845888
  6138   1      25.152642732049038      34.289316987740797      39.568443082311738
  6139   1      34.667928196147109      16.480302977232924      9.2223975481611209
  6140   2      34.546486865148864      16.115978984238179      9.9081838879159374
  6141   1      33.796408056042033      15.873096322241681      9.9153274956217157
  6142   1      35.003677758318737      15.473054290718038      9.9081838879159374
  6143   2      34.775082311733804      16.766047285464097      10.736842381786339
  6144   1      35.518017513134858      17.008929947460594      10.708267950963224
  6145   1      34.310747810858146      17.416115586690019         10.715411558669
  6146   3      34.603635726795098      16.258851138353766       11.59407530647986
  6147   1      34.739364273204906      16.673180385288966      12.101271453590192
  6148   1       39.23269352014011      30.046014010507882      7.9936970227670754
  6149   2      39.661309982486863      29.817418563922946      8.6009036777583177
  6150   1       39.20411908931699      29.353084063047287      9.0509509632224159
  6151   1      40.247085814360773       29.36737127845884      8.3223029772329244
  6152   2      40.047064798598953      30.667507880910684      9.1509614711033258
  6153   1      40.489968476357269       31.12469877408056      8.6866269702276711
  6154   1      39.447001751313479      31.117555166374782      9.4224185639229425
  6155   3      40.589978984238186      30.317471103327492      9.9224711033274957
  6156   1    0.028574430823119383      30.860385288966729      10.258220665499122
  6157   1      32.960605954465848      18.159050788091069     0.63578108581436699
  6158   2      32.489127845884418      18.601954465849381     0.19287740805604889
  6159   1      31.746192644483362       18.36621541155867     0.32146234676007091
  6160   1      32.546276707530652       19.33774605954466     0.45719089316988343
  6161   2      32.767728546409806      18.530518388791592      39.939910683012265
  6162   1      33.510663747810852      18.759113835376532      39.832756567425569
  6163   1      32.710579684763573      17.780439579684764      39.682740805604205
  6164   3      32.139091068301219      19.116294220665502      39.411283712784581
  6165   1      32.317681260945712      19.059145359019265      38.761215411558666
  6166   1      27.024267950963221       23.93108581436077      22.630949211908931
  6167   2      27.167140105078811      24.559723292469354      23.073852889667247
  6168   1      26.595651488616461      24.595441330998248       23.61676707530648
  6169   1      27.838639229422068      24.423994746059542      23.466751313485112
  6170   2      27.231432574430819       25.45981786339755      22.480933450087562
  6171   1      27.802921190893169      25.395525394045539      21.938019264448336
  6172   1       26.54564623467601      25.581259194395798      22.088035026269701
  6173   3      27.410022767075308      26.231327495621716      23.102427320490371
  6174   1      27.438597197898424      26.788528896672506       22.71667250437828
  6175   1      39.068390542907181      13.229961471103328      39.989915936952713
  6176   2      39.339847635726784      13.751444833625218      40.497112084063048
  6177   1      40.125644483362521      13.730014010507878      40.454250437828371
  6178   1      39.118395796847629      14.465805604203153      40.239942206654995
  6179   2       38.97552364273205      13.558567425569176     0.70007355516637482
  6180   1      38.189726795096313      13.572854640980735     0.72150437828371283
  6181   1      39.196975481611211      12.829919439579683     0.94295621716287226
  6182   3      39.361278458844133      14.251497373029775      1.3215674255691769
  6183   1      39.125539404553415      14.115768826619965      1.9359176882661995
  6184   1      22.595231173380036      18.573380035026268      33.096334500875656
  6185   2      22.909549912434322      17.944742556917689      32.753441330998243
  6186   1      23.688203152364267      18.059040280210159      32.710579684763573
  6187   1      22.802395796847637      17.330392294220665      33.239206654991243
  6188   2      22.459502626970227      17.766152364273207      31.789054290718035
  6189   1      21.687992994746061      17.658998248686515      31.853346760070046
  6190   1      22.573800350262694      18.387646234676005       31.31043257443082
  6191   3      22.895262697022766      16.944637478108582      31.389012259194395
  6192   1      22.616661996497371      16.851770577933451       30.78180560420315
  6193   1      19.887803852889665       19.43775656742557      26.595651488616461
  6194   2       20.30927670753065      18.809119089316987       26.77424168126095
  6195   1      20.466436077057796      18.423364273204907      26.102742556917686
  6196   1      21.002206654991237      19.066288966725043      27.052842381786338
  6197   2      19.802080560420311      18.187625218914185      27.495746059544661
  6198   1      19.652064798598946      18.587667250437828      28.160101576182136
  6199   1      19.102007005253938      17.937598949211907      27.202858143607703
  6200   3      20.387856392294221      17.387541155866902      27.695767075306474
  6201   1       20.05210683012259      17.008929947460594      28.138670753064801
  6202   1      7.9222609457092821      5.1219667250437828      1.7144658493870399
  6203   2      7.9722661996497362      5.7220297723292468      2.2145183887915936
  6204   1      8.6437653239929944      6.1006409807355508      2.0502154115586686
  6205   1      7.3793467600700504      6.2149387040280208      2.0430718038528894
  6206   2      7.9294045534150621      5.3862802101576186      3.2360542907180383
  6207   1      7.2579054290718039      5.0005253940455336      3.3789264448336245
  6208   1      8.5223239929947461      4.8862276707530645      3.3932136602451837
  6209   3      8.0008406304728563      6.1935078809106825      3.8361173380035023
  6210   1      7.9794098073555171      5.9720560420315225       4.471898423817863
  6211   1      30.331758318739055      5.1148231173380037      30.710369527145357
  6212   2      30.660364273204905      5.7791786339754818       30.46748686514886
  6213   1      31.081837127845883      6.0720665499124333      31.074693520140102
  6214   1      31.181847635726797      5.5934448336252194      29.903141856392295
  6215   2      29.917429071803845      6.4792521891418566      30.110306479859894
  6216   1       29.51024343257443       6.164933450087565       29.51024343257443
  6217   1      29.395945709281968      6.6506987740805608       30.68179509632224
  6218   3      30.388907180385285      7.3150542907180389      29.810274956217164
  6219   1      29.910285464098077      7.7365271453590188      29.588823117338006
  6220   1      25.145499124343257      29.867423817863397      40.482824868651491
  6221   2      24.724026269702275       29.58167950963222     0.28574430823117342
  6222   1      23.966803852889665      29.688833625218908        0.10715411558669
  6223   1      24.852611208406305      28.810169877408061      0.3143187390542907
  6224   2      24.995483362521892      30.067444833625217      1.2144133099824868
  6225   1      25.759849387040283      29.967434325744307      1.3715726795096321
  6226   1       24.87404203152364      30.853241681260943      1.1644080560420316
  6227   3      24.431138353765327      29.681690017513137      1.9502049036777587
  6228   1      24.602584938704027      29.996008756567424      2.5145499124343256
  6229   1      38.232588441331004      28.995903677758321      14.637252189141854
  6230   2      38.668348511383542      29.195924693520134      15.251602451838876
  6231   1      39.111252189141858      28.567287215411561      15.437336252189139
  6232   1      39.168401050788091      29.753126094570923      15.015863397548161
  6233   2      38.061141856392297      29.531674255691769      16.080260945709281
  6234   1      37.625381786339759      30.146024518388785      15.865952714535901
  6235   1       37.56108931698774      28.953042031523644      16.301712784588442
  6236   3      38.668348511383542      29.767413309982484      16.844626970227672
  6237   1      38.275450087565673      29.974577933450078      17.351823117338004
  6238   1      14.265784588441333      7.6222294220665496      37.346781085814364
  6239   2      14.480092819614713      7.5650805604203146      36.589558669001754
  6240   1      14.744406304728546      8.2794413309982495      36.368106830122592
  6241   1      15.087299474605956      7.0721716287215406      36.553840630472855
  6242   2      13.651434325744306      7.2293309982486864      35.982352014010509
  6243   1      13.394264448336253      6.5292574430823125      36.225234676006998
  6244   1      13.044227670753067      7.7365271453590188      36.039500875656742
  6245   3      13.965753064798598      7.1793257443082306      35.025108581436072
  6246   1      13.444269702276708      6.9721611208406298      34.660784588441331
  6247   1      24.945478108581433      34.525056042031522       10.81542206654991
  6248   2      24.574010507880907      34.982246935201402      10.293938704028021
  6249   1       23.93108581436077      35.260847635726797      10.651119089316985
  6250   1      25.045488616462343      35.596597197898426      10.151066549912434
  6251   2      24.345415061295967      34.432189141856398      9.3938441330998241
  6252   1      25.002626970227666      34.153588441330996      9.0580945709281959
  6253   1      23.881080560420315      33.810695271453589      9.5581471103327509
  6254   3      23.873936952714537      35.060826619964978      8.7580630472854644
  6255   1      23.731064798598947      34.703646234676008      8.2080052539404562
  6256   1     0.80008406304728541        23.3310227670753      24.466856392294222
  6257   2     0.55005779334500882      22.659523642732051       24.77403152364273
  6258   1    0.071436077057793354      22.316630472854644      24.252548161120838
  6259   1      1.1786952714535903      22.188045534150611      24.852611208406305
  6260   2    0.064292469352014006      22.830970227670754      25.724131348511378
  6261   1     0.55005779334500882      23.181007005253942      26.231327495621716
  6262   1      40.225654991243431      23.309591943957965       25.63126444833625
  6263   3      40.547117338003503      21.938019264448336      26.081311733800344
  6264   1      40.239942206654995      22.059460595446584      26.667087565674255
  6265   1      29.060196147110325      34.353609457092823      24.266835376532399
  6266   2      29.688833625218908      34.253598949211913      24.716882661996497
  6267   1      30.046014010507882      33.596387040280213      24.474000000000004
  6268   1      30.181742556917683      34.853661996497365      24.581154115586685
  6269   2      29.417376532399302      34.203593695271451      25.766992994746058
  6270   1      29.045908931698772      34.860805604203151      25.988444833625213
  6271   1      28.917323992994746      33.603530647985991      25.888434325744306
  6272   3       30.25317863397548      34.067865148861642       26.30276357267951
  6273   1      30.067444833625217      34.039290718038529      26.945688266199646
  6274   1      38.368316987740812      6.4006725043782833      14.087194395796844
  6275   2      37.832546409807357      6.9007250437828365      13.808593695271455
  6276   1      37.511084063047292      7.2579054290718039      14.437231173380034
  6277   1       38.21830122591944      7.4579264448336255      13.401408056042028
  6278   2       37.10389842381786      6.3935288966725041       13.20138704028021
  6279   1      37.446791593695266      6.0292049036777575      12.594180385288967
  6280   1       36.73243082311734      5.8291838879159368      13.630003502626968
  6281   3      36.432399299474604      7.0721716287215406      12.879924693520142
  6282   1      35.982352014010509      6.7435656742556906      12.508457092819613
  6283   1      11.094022767075305      16.201702276707529      7.7936760070052529
  6284   2      10.858283712784589      16.358861646234672      7.0650280210157614
  6285   1      10.643975481611209      15.673075306479859      6.7364220665499115
  6286   1      10.208215411558667      16.801765323992996      7.1150332749562173
  6287   2      11.636936952714535      16.851770577933451      6.5078266199649732
  6288   1      11.851245183887915      17.523269702276703      6.8507197898423806
  6289   1      12.287005253940453      16.394579684763574      6.4721085814360766
  6290   3      11.294043782837127      17.023217162872154      5.5720140105078801
  6291   1      11.786952714535902      17.330392294220665      5.2362644483362519
  6292   1      38.561194395796846      10.801134851138354      38.404035026269703
  6293   2      38.868369527145354      11.451203152364274      38.104003502626966
  6294   1      38.925518388791588      11.972686514886162      38.696922942206655
  6295   1      39.611304728546415      11.286900175131347      37.882551663747812
  6296   2      38.282593695271459      11.822670753064799      37.282488616462352
  6297   1      38.225444833625218      11.286900175131347      36.710999999999999
  6298   1      37.539658493870398      11.979830122591942      37.525371278458849
  6299   3      38.711210157618211      12.665616462346758      36.939595446584939
  6300   1      38.332598949211906      12.887068301225918      36.432399299474604
