6
Properties=species:S:1:pos:R:3:forces:R:3 charge=-1.0 dipole_moment="0.00022860455496357939 0.00046355923645392485 -1.6033942477553849" energy=-15.392875791017048 pbc="F F F"
C        0.00079200       0.00087100      -5.39121200       0.04441787       0.00512678      -0.04709284
H        0.00181900       1.02945400      -5.04173900      -0.00183165       0.01299744      -0.00362474
H       -0.88898700      -0.51256300      -5.04197500      -0.04588185      -0.02433035       0.02034154
H        0.89170000      -0.51379400      -5.04197200       0.00371113      -0.00212733       0.00372039
F        0.00053800      -0.00090400      -6.78261000      -0.00041549       0.00834632       0.04976062
I       -0.00026700      -0.00000400       2.04748000       0.00000154       0.00001491      -0.02275015
