85
Properties=species:S:1:pos:R:3 names="CB HB1 HB2 ND1 HD1 CG CE1 HE1 NE2 CD2 HD2 FE NA NB NC ND C1A C2A C3A C4A C1B C2B C3B C4B C1C C2C C3C C4C C1D C2D C3D C4D CHA HA CHB HB CHC HC CHD HD CMA HMA1 HMA2 HMA3 CAA HAA1 HAA2 CBA HBA1 HBA2 CGA O1A O2A CMB HMB1 HMB2 HMB3 CAB HAB CBB HBB1 HBB2 CMC HMC1 HMC2 HMC3 CAC HAC CBC HBC1 HBC2 CMD HMD1 HMD2 HMD3 CAD HAD1 HAD2 CBD HBD1 HBD2 CGD O1D O2D HL" pbc="F F F"
C       66.80000000      78.68000000      45.38000000
H       67.11000000      79.31000000      44.53000000
H       66.94000000      77.60000000      45.15000000
N       64.66000000      79.94000000      46.15000000
H       65.04000000      80.86000000      46.21000000
C       65.36000000      78.82000000      45.78000000
C       63.36000000      79.68000000      46.31000000
H       62.50000000      80.32000000      46.49000000
N       63.14000000      78.37000000      46.12000000
C       64.38000000      77.88000000      45.70000000
H       64.49000000      76.81000000      45.59000000
Fe      61.16000000      77.42000000      46.39000000
N       60.65000000      79.02000000      47.29000000
N       60.75000000      78.26000000      44.64000000
N       61.62000000      75.73000000      45.52000000
N       61.74000000      76.66000000      48.12000000
C       60.68000000      79.25000000      48.66000000
C       60.10000000      80.57000000      49.00000000
C       59.73000000      81.08000000      47.80000000
C       60.12000000      80.13000000      46.78000000
C       60.20000000      79.48000000      44.43000000
C       59.75000000      79.69000000      43.03000000
C       60.07000000      78.54000000      42.43000000
C       60.64000000      77.63000000      43.45000000
C       61.40000000      75.39000000      44.18000000
C       61.65000000      74.00000000      43.89000000
C       61.89000000      73.41000000      45.09000000
C       62.03000000      74.57000000      46.04000000
C       62.25000000      75.39000000      48.33000000
C       62.48000000      75.04000000      49.72000000
C       62.10000000      76.19000000      50.35000000
C       61.73000000      77.18000000      49.36000000
C       61.30000000      78.48000000      49.57000000
H       61.40000000      78.88000000      50.58000000
C       59.87000000      80.36000000      45.42000000
H       59.35000000      81.25000000      45.05000000
C       60.96000000      76.32000000      43.21000000
H       61.00000000      75.98000000      42.17000000
C       62.33000000      74.39000000      47.33000000
H       62.83000000      73.49000000      47.66000000
C       58.96000000      82.29000000      47.55000000
H       59.51000000      82.87000000      46.77000000
H       57.97000000      82.22000000      47.05000000
H       58.88000000      82.95000000      48.43000000
C       59.80000000      81.13000000      50.32000000
H       59.31000000      80.34000000      50.93000000
H       59.07000000      81.97000000      50.28000000
C       60.98000000      81.73000000      51.05000000
H       61.15000000      82.77000000      50.69000000
H       61.89000000      81.13000000      50.85000000
C       60.66000000      81.72000000      52.53000000
O       61.59000000      81.47000000      53.32000000
O       59.47000000      81.99000000      52.89000000
C       59.23000000      80.95000000      42.54000000
H       59.30000000      81.84000000      43.20000000
H       59.83000000      81.28000000      41.66000000
H       58.16000000      80.84000000      42.24000000
C       59.95000000      78.20000000      41.10000000
H       60.29000000      77.26000000      40.63000000
C       59.43000000      78.95000000      40.11000000
H       58.85000000      79.86000000      40.33000000
H       59.42000000      78.63000000      39.05000000
C       61.73000000      73.47000000      42.52000000
H       60.75000000      73.21000000      42.05000000
H       62.30000000      74.14000000      41.85000000
H       62.42000000      72.60000000      42.58000000
C       61.74000000      72.11000000      45.49000000
H       61.92000000      71.93000000      46.56000000
C       61.45000000      71.06000000      44.73000000
H       61.51000000      71.16000000      43.63000000
H       61.32000000      70.08000000      45.22000000
C       62.99000000      73.66000000      50.23000000
H       64.07000000      73.51000000      50.05000000
H       62.74000000      73.68000000      51.31000000
H       62.32000000      72.93000000      49.74000000
C       62.09000000      76.38000000      51.82000000
H       62.23000000      77.45000000      52.08000000
H       63.00000000      75.88000000      52.20000000
C       60.79000000      75.80000000      52.46000000
H       60.70000000      74.70000000      52.34000000
H       59.97000000      76.41000000      52.04000000
C       60.84000000      75.94000000      53.94000000
O       60.03000000      76.75000000      54.52000000
O       61.90000000      75.52000000      54.49000000
H       67.44810584      78.84520345      46.12341552
