85
Properties=species:S:1:pos:R:3 names="CB HB1 HB2 ND1 HD1 CG CE1 HE1 NE2 CD2 HD2 FE NA NB NC ND C1A C2A C3A C4A C1B C2B C3B C4B C1C C2C C3C C4C C1D C2D C3D C4D CHA HA CHB HB CHC HC CHD HD CMA HMA1 HMA2 HMA3 CAA HAA1 HAA2 CBA HBA1 HBA2 CGA O1A O2A CMB HMB1 HMB2 HMB3 CAB HAB CBB HBB1 HBB2 CMC HMC1 HMC2 HMC3 CAC HAC CBC HBC1 HBC2 CMD HMD1 HMD2 HMD3 CAD HAD1 HAD2 CBD HBD1 HBD2 CGD O1D O2D HL" pbc="F F F"
C       66.80000000      78.68000000      45.38000000
H       67.01237930      79.39942564      44.58278089
H       66.98065005      77.68413262      44.97540371
N       64.86812878      79.96039786      46.34986660
H       65.37751048      80.81757996      46.47568120
C       65.38711384      78.79024812      45.83045937
C       63.56173056      79.76414096      46.64974904
H       62.91330643      80.51409439      47.06551747
N       63.21806005      78.52859783      46.34863074
C       64.33811872      77.91117962      45.83870734
H       64.30595683      76.88725202      45.51306397
Fe      61.45173999      77.77853485      46.53327142
N       60.69920752      79.35459368      47.46382112
N       60.81973890      78.52047327      44.78438593
N       61.92046783      76.05767800      45.63687914
N       61.80648629      76.93259678      48.28533778
C       60.61361934      79.57695260      48.82768792
C       60.01425843      80.86542446      49.11135965
C       59.75966045      81.44170091      47.89967184
C       60.16585762      80.48894555      46.89338253
C       60.28012130      79.77203452      44.54538504
C       60.02344170      79.98206881      43.14753012
C       60.39993554      78.82213547      42.50796230
C       60.89572264      77.93145986      43.54749476
C       61.85140509      75.77755117      44.28096044
C       62.33676079      74.45735923      43.98795544
C       62.69618333      73.89981440      45.19523857
C       62.43816036      74.91631252      46.20175418
C       62.37596932      75.70543885      48.52350831
C       62.59985728      75.48390746      49.93915964
C       62.15355409      76.60645714      50.57161539
C       61.64125042      77.48506145      49.53856767
C       61.06079124      78.70477130      49.79343098
H       60.98688930      79.03597378      50.84073928
C       60.00012059      80.69074780      45.53919071
H       59.56717584      81.63564406      45.24100600
C       61.37654146      76.65860211      43.32506339
H       61.37318798      76.30130736      42.30548089
C       62.67780740      74.77288066      47.55387116
H       63.10635468      73.84525919      47.90636167
C       59.15497952      82.76838735      47.59645689
H       59.75471010      83.32766514      46.87531171
H       58.15474917      82.66730694      47.16615314
H       59.07262542      83.37614958      48.49383980
C       59.70741532      81.41868833      50.46666435
H       59.30038977      80.63410175      51.10756155
H       58.93509614      82.17956987      50.34970532
C       60.88693299      82.03593835      51.21642706
H       60.50128349      82.63600161      52.05017803
H       61.48508947      82.69995049      50.59365515
C       61.81919793      81.00669527      51.91316809
O       61.24470628      79.97442112      52.34591717
O       63.00697499      81.32654639      51.98313023
C       59.47698960      81.23357295      42.55531619
H       59.48630078      82.05953368      43.26254915
H       60.05899127      81.54873282      41.68886787
H       58.44360731      81.10653425      42.21956472
C       60.35398224      78.47892588      41.10293086
H       60.85976119      77.55619890      40.83386848
C       59.75423670      79.15013542      40.11331507
H       59.19131866      80.05635188      40.28293751
H       59.79638002      78.80133556      39.09075517
C       62.43225834      73.85237463      42.63223405
H       61.69127691      73.05988464      42.48934995
H       62.27488691      74.58232420      41.84255914
H       63.41539019      73.41013464      42.46413352
C       63.21980650      72.58719034      45.50282913
H       63.52567813      72.44469182      46.53466612
C       63.34571073      71.53770083      44.68154992
H       63.03689689      71.56623565      43.64669401
H       63.76385685      70.60355103      45.02928162
C       63.19275101      74.25291031      50.52040447
H       64.25159576      74.16722855      50.26621468
H       63.06464002      74.24127690      51.60364172
H       62.68827171      73.36304964      50.13746245
C       62.14185200      76.92131717      52.02643593
H       62.23721162      77.99760040      52.18616805
H       62.97334534      76.40596531      52.50828003
C       60.86325297      76.43934579      52.70458756
H       59.96943155      76.87189839      52.25841394
H       60.89089989      76.70091924      53.76689427
C       60.79364699      74.89468559      52.62733922
O       59.80092613      74.42513604      52.06095209
O       61.78346990      74.31436142      53.12220119
H       67.44810584      78.84520345      46.12341552
