85
Properties=species:S:1:pos:R:3 names="CB HB1 HB2 ND1 HD1 CG CE1 HE1 NE2 CD2 HD2 FE NA NB NC ND C1A C2A C3A C4A C1B C2B C3B C4B C1C C2C C3C C4C C1D C2D C3D C4D CHA HA CHB HB CHC HC CHD HD CMA HMA1 HMA2 HMA3 CAA HAA1 HAA2 CBA HBA1 HBA2 CGA O1A O2A CMB HMB1 HMB2 HMB3 CAB HAB CBB HBB1 HBB2 CMC HMC1 HMC2 HMC3 CAC HAC CBC HBC1 HBC2 CMD HMD1 HMD2 HMD3 CAD HAD1 HAD2 CBD HBD1 HBD2 CGD O1D O2D HL" charge=-2 spin_multiplicity=5 pbc="F F F"
C       66.80000000      78.68000000      45.38000000
H       66.95066488      79.44554779      44.61156109
H       67.02823445      77.71691193      44.92492481
N       64.83879287      79.69222748      46.60462046
H       65.31488222      80.50877228      46.94454517
C       65.38581090      78.66937660      45.85652354
C       63.54258905      79.39032801      46.84857399
H       62.87140767      80.02500048      47.40650231
N       63.22766000      78.24449730      46.30063439
C       64.36679070      77.78173547      45.68338029
H       64.37173054      76.84188704      45.15418306
Fe      61.15911458      77.37925991      46.39238879
N       60.52028611      79.02945974      47.39103805
N       60.50605526      78.20565384      44.61420586
N       61.56535783      75.61752741      45.40574317
N       61.53857460      76.48533407      48.16064233
C       60.62403039      79.26785546      48.72165886
C       60.20923410      80.62976141      49.03639366
C       59.85950002      81.20673924      47.85717069
C       60.05848153      80.20579783      46.82254153
C       60.03868754      79.48324950      44.44186913
C       59.79134086      79.74609566      43.07294508
C       60.11924743      78.58507096      42.38024766
C       60.58524412      77.63930023      43.37352679
C       61.49125265      75.40146928      44.04874334
C       61.92355210      74.09468342      43.73785047
C       62.26288067      73.48994355      44.95803466
C       62.03555512      74.47055109      45.96204756
C       62.05975843      75.21894602      48.33486524
C       62.37419595      74.99968575      49.74151398
C       62.04777064      76.13583194      50.40294406
C       61.52410263      77.06090293      49.39280349
C       61.09633834      78.35171273      49.65967822
H       61.13850117      78.68322729      50.68745040
C       59.84544536      80.41150789      45.48985263
H       59.49264508      81.39683089      45.21456688
C       61.03564035      76.35414780      43.11065931
H       61.00711854      76.02746683      42.07983525
C       62.27317321      74.30038335      47.35526167
H       62.66070476      73.34228820      47.67775087
C       59.38901982      82.60524315      47.61579130
H       60.14415505      83.17989477      47.07268040
H       58.46578794      82.61546595      47.02814457
H       59.23549664      83.13408697      48.55547886
C       60.25147833      81.25102693      50.39840047
H       60.07401975      80.48027517      51.15186584
H       59.45504426      81.99025560      50.49891567
C       61.57349850      81.97565105      50.67748967
H       62.42298547      81.37651221      50.34450095
H       61.67390466      82.13064613      51.75646531
C       61.65020751      83.38410161      50.03291613
O       62.73025586      83.68396192      49.47227861
O       60.62708159      84.09762095      50.16869801
C       59.33557175      81.04598087      42.49492517
H       59.52257778      81.87660158      43.17470190
H       59.86533503      81.25331562      41.56175173
H       58.26450698      81.04456983      42.26556052
C       60.08448590      78.32084736      40.96106249
H       60.69782797      77.48427515      40.63293378
C       59.39538882      78.97299743      40.01313213
H       58.72667828      79.79004825      40.24493155
H       59.47196488      78.67579385      38.97464905
C       62.06127745      73.52741978      42.36426996
H       61.21218987      72.89591030      42.07723761
H       62.14131811      74.32043143      41.61880223
H       62.96106121      72.91013194      42.29063892
C       62.75441503      72.15284399      45.21436636
H       63.22617980      72.00941504      46.18285710
C       62.68728482      71.08189366      44.41312099
H       62.19729627      71.11331334      43.44981478
H       63.10438398      70.13469971      44.72978734
C       62.96666172      73.74054552      50.28388875
H       63.90890952      73.50337614      49.77882197
H       63.14865273      73.81989506      51.35646721
H       62.29042749      72.89396372      50.13289263
C       62.16810745      76.42333837      51.87035182
H       62.17052695      77.50489608      52.02364506
H       63.12331414      76.04485732      52.24381985
C       61.07868771      75.75535285      52.72237367
H       60.14135931      75.66273262      52.17282709
H       60.87325760      76.37174882      53.60329946
C       61.46279349      74.35777553      53.28696399
O       60.50878257      73.57875059      53.49538361
O       62.68318848      74.16690886      53.51916641
H       67.44810584      78.84520345      46.12341552
