85
Properties=species:S:1:pos:R:3 names="CB HB1 HB2 ND1 HD1 CG CE1 HE1 NE2 CD2 HD2 FE NA NB NC ND C1A C2A C3A C4A C1B C2B C3B C4B C1C C2C C3C C4C C1D C2D C3D C4D CHA HA CHB HB CHC HC CHD HD CMA HMA1 HMA2 HMA3 CAA HAA1 HAA2 CBA HBA1 HBA2 CGA O1A O2A CMB HMB1 HMB2 HMB3 CAB HAB CBB HBB1 HBB2 CMC HMC1 HMC2 HMC3 CAC HAC CBC HBC1 HBC2 CMD HMD1 HMD2 HMD3 CAD HAD1 HAD2 CBD HBD1 HBD2 CGD O1D O2D HL" charge=-2 spin_multiplicity=1 pbc="F F F"
C       66.80000000      78.68000000      45.38000000
H       66.96132522      79.44838645      44.61727215
H       67.03641459      77.71891842      44.92130901
N       64.78391656      79.68355437      46.53120942
H       65.13471243      80.51961705      47.01858831
C       65.37723259      78.66455137      45.82505123
C       63.49581918      79.36262463      46.70179964
H       62.83208306      80.01726593      47.23473180
N       63.20786246      78.19997121      46.15689088
C       64.38356331      77.75409776      45.59764181
H       64.43369617      76.81389313      45.07207341
Fe      61.42243439      77.28632510      46.30774163
N       60.72602821      78.87975236      47.31769275
N       60.74473630      78.07518018      44.57925324
N       61.96190837      75.60418321      45.32915953
N       61.84984049      76.39548505      48.04391017
C       61.05223896      79.18521024      48.59624301
C       60.90495648      80.61206966      48.84850896
C       60.37962496      81.14461526      47.71710859
C       60.29039510      80.05432730      46.75678396
C       60.16067853      79.29177744      44.41299117
C       59.88427781      79.54412960      43.02629345
C       60.33182468      78.44136603      42.34134836
C       60.88159644      77.54518024      43.33325218
C       61.96729138      75.41927263      43.96894698
C       62.51043857      74.12604224      43.63800945
C       62.80057983      73.51689130      44.83096894
C       62.45204758      74.46517153      45.86981092
C       62.30767046      75.12357565      48.23423310
C       62.54768660      74.86031645      49.64802562
C       62.27749975      76.01140396      50.30289341
C       61.83572687      76.96095037      49.28184765
C       61.51067620      78.27664026      49.53828920
H       61.63751737      78.63444633      50.55121208
C       59.96248654      80.22402221      45.43769459
H       59.59171201      81.20012666      45.15102232
C       61.46782821      76.31816148      43.04851166
H       61.50402190      76.02285579      42.00753521
C       62.58606860      74.22205498      47.23674942
H       62.94860540      73.25028534      47.54520875
C       60.07364872      82.57345337      47.41259430
H       60.84086148      83.00173853      46.76519105
H       59.09852621      82.67391608      46.92605848
H       60.07557879      83.17292213      48.32156578
C       61.49646498      81.32430633      50.02677484
H       61.18964953      80.84247587      50.96110242
H       61.13488004      82.35266000      50.05086574
C       63.03309495      81.34729885      49.94133546
H       63.43025740      80.33117769      49.90078235
H       63.43755215      81.80526091      50.85098597
C       63.60247445      82.15548630      48.74672855
O       64.70657477      81.74633549      48.28068797
O       62.94820378      83.14434238      48.37242282
C       59.30510222      80.80041584      42.46247282
H       59.49651351      81.65502736      43.11123398
H       59.74445043      81.01647848      41.48614947
H       58.22165257      80.73006948      42.32325259
C       60.33894574      78.19083559      40.90825401
H       61.10756236      77.50812115      40.55533845
C       59.51328147      78.70811521      39.99500828
H       58.69384543      79.36276529      40.25932122
H       59.62940879      78.46217016      38.94657692
C       62.74256317      73.61229837      42.25483426
H       61.91697279      72.98538198      41.90223073
H       62.85723530      74.42995909      41.54214492
H       63.65016356      73.00490208      42.21843185
C       63.38601134      72.20552550      45.07503064
H       63.89026980      72.08603604      46.02964910
C       63.36519527      71.15298577      44.25414659
H       62.84864508      71.17082583      43.30421615
H       63.84921600      70.22616099      44.53612366
C       63.01781693      73.55805647      50.20959526
H       64.06929734      73.37590730      49.96234235
H       62.88652466      73.54756932      51.29332387
H       62.43565751      72.72786778      49.80022558
C       62.39397951      76.32564324      51.76207723
H       62.77237825      77.34758973      51.86600883
H       63.12607321      75.65706699      52.21807439
C       61.09009500      76.15736104      52.55105795
H       60.21900876      76.42472005      51.94938356
H       61.09020999      76.83526725      53.41100516
C       60.85105696      74.73574330      53.14314509
O       59.69535462      74.53392607      53.56937828
O       61.83764560      73.96088882      53.17164560
H       67.44810584      78.84520345      46.12341552
